* Univariate IPC_FR (log first differences)
** Frequency (1=A, 4=Q, 12=M):
 12
** Series, observations, start (subperiod year):
 1 216 1 2002
** Series names:
 IPC_FR
** Box-Cox lambda, regular differences, annual differences:
 0.0 1 0
** Data:
81.9400
82.0400
82.4000
82.7100
82.8100
82.8000
82.8000
82.9900
83.1400
83.2700
83.2700
83.4100
83.5700
84.1500
84.4900
84.3700
84.2700
84.4300
84.3400
84.5400
84.8600
85.0400
85.1400
85.2300
85.2300
85.5900
85.9300
86.1500
86.4700
86.5000
86.3600
86.5500
86.6300
86.8500
86.9000
87.0000
86.5200
87.0500
87.6000
87.7700
87.8300
87.9300
87.8000
88.1400
88.4800
88.4600
88.2800
88.3900
88.3000
88.6400
88.8900
89.2700
89.6500
89.6500
89.5000
89.8000
89.6000
89.4000
89.5000
89.7100
89.4000
89.5700
89.9500
90.3900
90.6100
90.7200
90.4900
90.8600
90.9600
91.1900
91.6900
92.0300
91.9200
92.1200
92.8100
93.1200
93.6200
93.9600
93.7600
93.7300
93.6700
93.6200
93.1800
92.9500
92.5700
92.9200
93.0900
93.2400
93.3800
93.5000
93.0800
93.5600
93.3300
93.4200
93.5500
93.8000
93.5900
94.1100
94.5700
94.8100
94.9200
94.9100
94.6400
94.8600
94.7900
94.9100
95.0200
95.4500
95.2200
95.6700
96.4500
96.7800
96.8300
96.9100
96.4800
96.9800
96.9100
97.1400
97.4100
97.8000
97.4600
97.8600
98.6700
98.8000
98.7500
98.7800
98.3500
99.0000
98.7600
98.9400
98.7900
99.1000
98.6000
98.8800
99.6300
99.4800
99.5400
99.7000
99.4000
99.8600
99.6300
99.5000
99.4600
99.8000
99.2400
99.7900
100.2400
100.2000
100.2200
100.1800
99.8600
100.3000
99.9200
99.9500
99.7800
99.8600
98.8600
99.5200
100.1700
100.2800
100.5200
100.4400
100.0300
100.3500
99.9500
100.0100
99.8200
100.0400
99.0800
99.3300
100.0200
100.0900
100.5000
100.6300
100.2500
100.5800
100.3400
100.3700
100.3500
100.6500
100.4100
100.5300
101.1700
101.2600
101.3100
101.3200
100.9700
101.4900
101.3300
101.4300
101.5300
101.8500
101.7500
101.7200
102.7500
102.9200
103.3600
103.3700
103.2800
103.7800
103.5600
103.6700
103.4500
103.4700
103.0100
103.0600
103.8900
104.2200
104.3300
104.5800
104.3800
104.8600
104.5000
104.4600
104.5200
104.9800
