* DRVARMA input generated by drvarma_gui
* series seasonally adjusted (harmonic), s=12
**********************************************************
** Frequency (1=A, 4=Q, 12=M):
 12
** Series, observations, start (subperiod year):
 3 216 1 2002
** Series names:
 y1 y2 y3
** Box-Cox lambda, regular differences, annual differences:
 0 1 0
** Data:
70.192892 82.991721 82.446017 
70.340050 82.669826 82.324435 
70.580318 82.636819 82.224519 
70.752865 82.531590 82.465159 
70.913078 82.609695 82.500244 
70.911180 82.571133 82.518106 
71.113894 82.499237 82.875413 
71.279607 82.488453 82.811608 
71.546153 82.611002 83.170581 
71.689811 82.611329 83.335110 
71.728358 82.622767 83.439639 
72.059793 83.056427 83.469168 
72.773892 83.591721 84.076017 
73.014050 83.769826 84.434435 
73.180318 83.536819 84.314519 
72.991865 83.331590 84.125159 
72.828078 83.109695 83.960244 
72.872180 83.371133 84.148106 
73.109894 83.299237 84.415413 
73.407607 83.388453 84.361608 
73.626153 83.511002 84.890581 
73.557811 83.611329 85.105110 
73.726358 83.722767 85.309639 
73.944793 83.956427 85.289168 
74.435892 84.491721 85.736017 
74.557050 84.369826 85.874435 
74.737318 84.436819 85.754519 
74.974865 84.731590 85.905159 
75.323078 84.909695 86.160244 
75.438180 84.871133 86.218106 
75.559894 84.799237 86.435413 
75.855607 84.988453 86.371608 
75.991153 84.911002 86.660581 
76.206811 85.111329 86.915110 
76.326358 85.322767 87.069639 
76.342793 85.856427 87.059168 
76.708892 85.791721 87.026017 
76.993050 85.769826 87.334435 
77.261318 85.936819 87.424519 
77.587865 85.731590 87.525159 
77.641078 85.809695 87.520244 
77.818180 85.971133 87.648106 
78.036894 86.099237 87.875413 
78.341607 86.288453 87.961608 
78.822153 86.511002 88.510581 
78.897811 86.711329 88.525110 
78.945358 86.722767 88.449639 
79.207793 87.056427 88.449168 
79.896892 87.291721 88.806017 
80.022050 87.369826 88.924435 
80.248318 87.136819 88.714519 
80.593865 87.431590 89.025159 
80.790078 87.409695 89.340244 
80.908180 87.571133 89.368106 
81.121894 87.699237 89.575413 
81.249607 87.688453 89.621608 
81.117153 87.511002 89.630581 
80.885811 87.611329 89.465110 
81.014358 87.922767 89.669639 
81.328793 88.256427 89.769168 
81.791892 88.791721 89.906017 
81.934050 88.869826 89.854435 
82.215318 88.836819 89.774519 
82.564865 89.231590 90.145159 
82.697078 89.209695 90.300244 
82.845180 89.271133 90.438106 
82.935894 89.499237 90.565413 
83.012607 89.488453 90.681608 
83.285153 89.811002 90.990581 
83.798811 90.111329 91.255110 
84.329358 90.922767 91.859639 
84.775793 91.056427 92.089168 
85.260892 91.291721 92.426017 
85.480050 91.369826 92.404435 
85.897318 91.636819 92.634519 
86.036865 91.431590 92.875159 
86.524078 91.909695 93.310244 
87.020180 92.171133 93.678106 
87.297894 92.499237 93.835413 
87.073607 92.288453 93.551608 
87.056153 92.311002 93.700581 
86.791811 92.211329 93.685110 
86.349358 92.122767 93.349639 
85.995793 92.056427 93.009168 
85.943892 92.191721 93.076017 
86.040050 92.369826 93.204435 
85.845318 91.936819 92.914519 
85.898865 92.031590 92.995159 
85.773078 91.909695 93.070244 
86.148180 92.171133 93.218106 
86.105894 91.999237 93.155413 
86.368607 92.288453 93.381608 
86.166153 92.111002 93.360581 
86.215811 92.311329 93.485110 
86.612358 92.422767 93.719639 
86.681793 92.856427 93.859168 
86.820892 92.791721 94.096017 
86.751050 92.869826 94.394435 
87.054318 93.136819 94.394519 
87.196865 93.131590 94.565159 
87.295078 93.109695 94.610244 
87.447180 93.071133 94.628106 
87.750894 92.999237 94.715413 
87.934607 93.188453 94.681608 
87.996153 93.211002 94.820581 
88.234811 93.411329 94.975110 
88.643358 93.922767 95.189639 
89.281793 94.056427 95.509168 
89.637892 94.391721 95.726017 
89.838050 94.669826 95.954435 
90.169318 94.936819 96.274519 
90.505865 95.031590 96.535159 
90.380078 94.909695 96.520244 
90.247180 94.971133 96.628106 
90.457894 94.999237 96.555413 
90.532607 95.188453 96.801608 
90.754153 95.511002 96.940581 
90.904811 95.611329 97.205110 
91.202358 96.022767 97.579639 
91.412793 95.956427 97.859168 
91.415892 96.291721 97.966017 
91.597050 96.669826 98.144435 
91.873318 97.036819 98.494519 
92.377865 96.831590 98.555159 
92.145078 96.709695 98.440244 
91.967180 96.571133 98.498106 
92.448894 96.799237 98.425413 
92.930607 97.188453 98.821608 
93.844153 97.411002 98.790581 
94.076811 97.511329 99.005110 
93.887358 97.922767 98.959639 
94.044793 97.856427 99.159168 
93.850892 97.891721 99.106017 
94.099050 98.169826 99.164435 
94.093318 98.336819 99.454519 
93.662865 97.931590 99.235159 
93.740078 98.309695 99.230244 
93.874180 98.371133 99.418106 
94.084894 98.599237 99.475413 
94.339607 98.688453 99.681608 
94.164153 98.811002 99.660581 
93.982811 98.711329 99.565110 
94.106358 99.222767 99.629639 
94.282793 99.256427 99.859168 
94.035892 99.291721 99.746017 
94.083050 99.369826 100.074435 
93.956318 99.436819 100.064519 
94.007865 99.331590 99.955159 
93.934078 99.109695 99.910244 
93.955180 99.371133 99.898106 
93.764894 99.399237 99.935413 
93.875607 99.588453 100.121608 
94.019153 99.711002 99.950581 
93.892811 99.511329 100.015110 
93.754358 99.822767 99.949639 
93.296793 99.456427 99.919168 
92.803892 98.991721 99.366017 
93.081050 99.369826 99.804435 
93.335318 99.636819 99.994519 
93.408865 100.131590 100.035159 
93.761078 100.309695 100.210244 
94.008180 100.271133 100.158106 
93.828894 100.299237 100.105413 
93.480607 100.388453 100.171608 
93.194153 100.311002 99.980581 
93.226811 100.411329 100.075110 
93.496358 100.022767 99.989639 
93.313793 99.656427 100.099168 
92.538892 99.491721 99.586017 
92.302050 99.469826 99.614435 
92.554318 99.936819 99.844519 
92.419865 100.031590 99.845159 
92.831078 100.509695 100.190244 
93.257180 100.571133 100.348106 
93.272894 100.799237 100.325413 
93.355607 100.788453 100.401608 
93.360153 100.911002 100.370581 
93.861811 101.211329 100.435110 
94.131358 100.822767 100.519639 
94.782793 101.156427 100.709168 
95.271892 101.091721 100.916017 
95.019050 101.369826 100.814435 
94.664318 101.336819 100.994519 
94.788865 101.731590 101.015159 
94.636078 101.709695 101.000244 
94.672180 101.971133 101.038106 
94.713894 102.199237 101.045413 
94.864607 102.388453 101.311608 
95.030153 102.611002 101.360581 
95.341811 102.511329 101.495110 
95.706358 102.422767 101.699639 
95.840793 102.556427 101.909168 
95.815892 102.491721 102.256017 
96.031050 102.469826 102.004435 
95.808318 102.836819 102.574519 
95.815865 103.031590 102.675159 
96.587078 103.809695 103.050244 
96.836180 103.871133 103.088106 
96.835894 104.099237 103.355413 
96.936607 104.288453 103.601608 
97.173153 104.611002 103.590581 
97.506811 104.911329 103.735110 
97.327358 104.522767 103.619639 
96.979793 104.156427 103.529168 
96.747892 103.891721 103.516017 
97.070050 103.969826 103.344435 
97.084318 104.136819 103.714519 
97.278865 105.131590 103.975159 
97.373078 105.309695 104.020244 
97.253180 105.571133 104.298106 
97.344894 105.899237 104.455413 
97.253607 105.788453 104.681608 
97.254153 105.911002 104.530581 
97.632811 106.111329 104.525110 
97.726358 105.622767 104.689639 
97.746793 105.756427 105.039168 
