* IPC eurozona reordenado: IPC_DE, IPC_FR, IPC_ES (ancla primero)
* muestra 01/2002 - 12/2019
**********************************************************
** Frequency (1=A, 4=Q, 12=M):
 12
** Series, observations, start (subperiod year):
 3 216 1 2002
** Series names:
 IPC_DE IPC_FR IPC_ES
** Box-Cox lambda, regular differences, annual differences:
 0.0 1 0
** Data:
77.7000 81.9400 69.5300
78.0000 82.0400 69.5900
78.2000 82.4000 70.1650
78.1000 82.7100 71.1180
78.2000 82.8100 71.3740
78.2000 82.8000 71.3770
78.3000 82.8000 70.8820
78.2000 82.9900 71.0850
78.2000 83.1400 71.3510
78.1000 83.2700 72.0580
77.8000 83.2700 72.1690
78.5000 83.4100 72.4090
78.5000 83.5700 72.1110
79.0000 84.1500 72.2640
79.0000 84.4900 72.7650
78.8000 84.3700 73.3570
78.6000 84.2700 73.2890
78.9000 84.4300 73.3380
79.0000 84.3400 72.8780
79.0000 84.5400 73.2130
79.0000 84.8600 73.4310
79.0000 85.0400 73.9260
78.8000 85.1400 74.1670
79.4000 85.2300 74.2940
79.4000 85.2300 73.7730
79.6000 85.5900 73.8070
79.9000 85.9300 74.3220
80.1000 86.1500 75.3400
80.3000 86.4700 75.7840
80.3000 86.5000 75.9040
80.4000 86.3600 75.3280
80.5000 86.5500 75.6610
80.3000 86.6300 75.7960
80.4000 86.8500 76.5750
80.3000 86.9000 76.7670
81.2000 87.0000 76.6920
80.6000 86.5200 76.0460
80.9000 87.0500 76.2430
81.3000 87.6000 76.8460
81.0000 87.7700 77.9530
81.2000 87.8300 78.1020
81.3000 87.9300 78.2840
81.7000 87.8000 77.8050
81.8000 88.1400 78.1470
81.9000 88.4800 78.6270
81.9000 88.4600 79.2660
81.7000 88.2800 79.3860
82.3000 88.3900 79.5570
82.0000 88.3000 79.2340
82.4000 88.6400 79.2720
82.4000 88.8900 79.8330
82.7000 89.2700 80.9590
82.7000 89.6500 81.2510
82.9000 89.6500 81.3740
83.2000 89.5000 80.8900
83.0000 89.8000 81.0550
82.7000 89.6000 80.9220
82.8000 89.4000 81.2540
82.8000 89.5000 81.4550
83.5000 89.7100 81.6780
83.5000 89.4000 81.1290
83.8000 89.5700 81.1840
84.0000 89.9500 81.8000
84.4000 90.3900 82.9300
84.4000 90.6100 83.1580
84.5000 90.7200 83.3110
84.9000 90.4900 82.7040
84.8000 90.8600 82.8180
84.9000 90.9600 83.0900
85.1000 91.1900 84.1670
85.6000 91.6900 84.7700
86.1000 92.0300 85.1250
85.8000 91.9200 84.5980
86.2000 92.1200 84.7300
86.6000 92.8100 85.4820
86.4000 93.1200 86.4020
86.9000 93.6200 86.9850
87.2000 93.9600 87.4860
87.7000 93.7600 87.0660
87.4000 93.7300 86.8790
87.4000 93.6700 86.8610
87.2000 93.6200 87.1600
86.8000 93.1800 86.7900
87.0000 92.9500 86.3450
86.6000 92.5700 85.2810
87.1000 92.9200 85.2900
87.0000 93.0900 85.4300
87.0000 93.2400 86.2640
87.0000 93.3800 86.2340
87.3000 93.5000 86.6140
87.3000 93.0800 85.8740
87.5000 93.5600 86.1740
87.1000 93.3300 85.9710
87.2000 93.4200 86.5840
87.1000 93.5500 87.0530
87.8000 93.8000 87.0310
87.3000 93.5900 86.1580
87.6000 94.1100 86.0010
88.1000 94.5700 86.6390
88.1000 94.8100 87.5620
88.1000 94.9200 87.7560
88.1000 94.9100 87.9130
88.2000 94.6400 87.5190
88.3000 94.8600 87.7400
88.2000 94.7900 87.8010
88.3000 94.9100 88.6030
88.4000 95.0200 89.0840
89.0000 95.4500 89.6310
88.7000 95.2200 88.9750
89.3000 95.6700 89.0880
89.8000 96.4500 89.7540
89.8000 96.7800 90.8710
89.8000 96.8300 90.8410
89.9000 96.9100 90.7130
90.1000 96.4800 90.2260
90.2000 96.9800 90.3380
90.3000 96.9100 90.5590
90.4000 97.1400 91.2730
90.5000 97.4100 91.6430
90.7000 97.8000 91.7620
90.6000 97.4600 90.7530
91.2000 97.8600 90.8470
91.7000 98.6700 91.4580
91.6000 98.8000 92.7430
91.5000 98.7500 92.6060
91.4000 98.7800 92.4330
91.7000 98.3500 92.2170
92.1000 99.0000 92.7360
92.2000 98.7600 93.6490
92.2000 98.9400 94.4450
92.2000 98.7900 94.3280
92.5000 99.1000 94.3940
92.1000 98.6000 93.1880
92.6000 98.8800 93.3490
93.0000 99.6300 93.6780
92.6000 99.4800 94.0280
93.0000 99.5400 94.2010
93.1000 99.7000 94.3400
93.5000 99.4000 93.8530
93.5000 99.8600 94.1450
93.5000 99.6300 93.9690
93.3000 99.5000 94.3510
93.5000 99.4600 94.5470
93.9000 99.8000 94.6320
93.3000 99.2400 93.3730
93.8000 99.7900 93.3330
94.0000 100.2400 93.5410
93.9000 100.2000 94.3730
93.8000 100.2200 94.3950
94.0000 100.1800 94.4210
94.3000 99.8600 93.5330
94.3000 100.3000 93.6810
94.3000 99.9200 93.8240
94.1000 99.9500 94.2610
94.1000 99.7800 94.1950
94.0000 99.8600 93.6460
93.1000 98.8600 92.1410
93.8000 99.5200 92.3310
94.3000 100.1700 92.9200
94.7000 100.2800 93.7740
94.9000 100.5200 94.2220
94.9000 100.4400 94.4740
95.1000 100.0300 93.5970
95.0000 100.3500 93.2860
94.9000 99.9500 92.9990
94.9000 100.0100 93.5950
94.3000 99.8200 93.9370
94.3000 100.0400 93.6630
93.6000 99.0800 91.8760
93.9000 99.3300 91.5520
94.5000 100.0200 92.1390
94.6000 100.0900 92.7850
95.1000 100.5000 93.2920
95.2000 100.6300 93.7230
95.5000 100.2500 93.0410
95.4000 100.5800 93.1610
95.5000 100.3400 93.1650
95.6000 100.3700 94.2300
95.0000 100.3500 94.5720
95.6000 100.6500 95.1320
95.1000 100.4100 94.6090
95.6000 100.5300 94.2690
95.8000 101.1700 94.2490
96.2000 101.2600 95.1540
96.2000 101.3100 95.0970
96.5000 101.3200 95.1380
96.9000 100.9700 94.4820
97.0000 101.4900 94.6700
97.0000 101.3300 94.8350
96.9000 101.4300 95.7100
96.5000 101.5300 96.1470
96.9000 101.8500 96.1900
96.4000 101.7500 95.1530
96.7000 101.7200 95.2810
97.2000 102.7500 95.3930
97.5000 102.9200 96.1810
98.2000 103.3600 97.0480
98.3000 103.3700 97.3020
98.7000 103.2800 96.6040
98.8000 103.7800 96.7420
99.0000 103.5600 96.9780
99.1000 103.6700 97.8750
98.5000 103.4500 97.7680
98.5000 103.4700 97.3290
97.7000 103.0100 96.0850
98.1000 103.0600 96.3200
98.5000 103.8900 96.6690
99.4000 104.2200 97.6440
99.6000 104.3300 97.8340
99.9000 104.5800 97.7190
100.3000 104.3800 97.1130
100.2000 104.8600 97.0590
100.2000 104.5000 97.0590
100.2000 104.4600 98.0010
99.5000 104.5200 98.1670
100.0000 104.9800 98.0960
