* synthetic: r = 2 BY CONSTRUCTION.  One common stochastic trend shared by
* three series (y_i = f + noise), so M - r = 1 and r = 2.  n = 200, seed 23.
*
* The opposite end from badnorm.inp: here the test has to find TWO relations.
* drvec: LR(0->1) = 88.95 and LR(1->2) = 73.06, both rejected at 1% -> r = 2.
1
3 200 1 1900
c1 c2 c3
1.0 0 0
-0.1002355771 -0.4832806706 0.1034889927
2.5792724401 2.3912842503 2.5346761336
1.1113629026 1.3774533916 0.9609844229
1.7001797797 1.0577763889 1.1017048123
1.4999916410 0.7428678017 0.6340915406
-0.2151201710 0.1535293576 0.5557324854
-0.2349238958 -0.2938963815 -0.7879523139
-1.3116868195 -0.6337332751 -0.9735996768
-1.1634412857 -1.0482438807 -0.9345351742
-0.3809315643 -0.5826613218 -0.3990410867
0.0877997579 0.1206706620 -0.1006908327
0.4302239184 0.7040034279 0.5752020124
1.5929808357 1.4701954472 1.4894872418
2.2443326923 2.4214422911 2.5701300302
2.3206405162 2.3960342409 2.1563482799
2.0888423073 1.4340523051 1.7606356519
0.7894667383 1.0156088616 1.4358861439
-0.9082675599 -1.0395287448 -0.6377804527
-0.6863229938 -0.5501489724 -0.5831910260
-1.2912741186 -1.3680944562 -0.9369927240
-1.0069552219 -0.4122896656 -0.8107116233
-0.2754307189 -0.1954304364 -0.2724301030
-2.0322591696 -1.2344805966 -2.0037888693
-2.8269279313 -2.4836306257 -2.9588647368
-3.3794681392 -3.7341207069 -3.9126497417
-2.8005690149 -2.4504956476 -2.6052223107
-3.6351119981 -3.3562403271 -3.0733081561
-3.1299460686 -2.9426475164 -2.5930149686
-3.2710213603 -3.9831356338 -3.6520288646
-4.3252930699 -5.2275103013 -5.1210224085
-5.9142457287 -6.3276362146 -5.5039932985
-5.7797590313 -6.5234698104 -5.8814079657
-5.3796005848 -6.1430164722 -5.5092569956
-7.0773715061 -6.7605984193 -7.2514985023
-7.4635375567 -7.0433210170 -6.9444840284
-7.5300917013 -7.6727053969 -7.8526219079
-8.3349001156 -8.4846849507 -8.1130482607
-8.8872839189 -8.9156783458 -8.3563990375
-9.7988915946 -8.9482441955 -8.9949152397
-9.1175824452 -9.6502307117 -8.8538354021
-8.1650568798 -8.2252270958 -8.1643815979
-7.9414294477 -8.1292019226 -7.7893440098
-8.4010790568 -8.7739003380 -8.6334927825
-8.2426129514 -8.6392575068 -8.1291675456
-7.5255427431 -8.3154436929 -7.9209911099
-6.8596124045 -7.4354925842 -7.0564040238
-7.2011638429 -6.5540696890 -7.5384467400
-8.6989902014 -8.7515453099 -8.5156873292
-9.2088875560 -9.5035847609 -9.1444935927
-9.9697962842 -9.8834390885 -10.1116528206
-8.5418633586 -8.8050616218 -8.4507963261
-9.3303574394 -8.8852799358 -9.1231113405
-8.2660936377 -8.3096614981 -8.5002735427
-7.9395409090 -8.1489508420 -7.7094351939
-9.7072588626 -9.2363091071 -9.6381424081
-9.0146096965 -9.6566120905 -8.6028019134
-8.9788713756 -8.8780711645 -9.1176464098
-8.7998637392 -8.1060553284 -8.3098018918
-10.3264040003 -10.3392919018 -9.6991078695
-10.2782908638 -10.0513007686 -9.5622075321
-10.8279287349 -10.9054814189 -10.3749976071
-12.1165291453 -12.5777517204 -12.7676353699
-13.2380544527 -13.0389253088 -13.2359559982
-15.2984016236 -15.3670006274 -15.1447512063
-16.4815869972 -16.6644703675 -16.2506745499
-15.0175059257 -14.8638093051 -15.8271061430
-13.0728410929 -12.8502019411 -12.6514647273
-11.9225267783 -11.6763955599 -12.1800718824
-11.4200947455 -11.6371680350 -11.6761320353
-9.3960113700 -9.3373764501 -9.7249187318
-9.3578087728 -9.1873102384 -9.6115649122
-9.9718014535 -10.5394393720 -10.2911481334
-13.0270352618 -13.1651501235 -13.4297331292
-12.2378029572 -11.4006586434 -11.9947447635
-14.8489317210 -14.7761690954 -14.7197243756
-17.3372335443 -17.6362486668 -17.4253656077
-17.8463423178 -18.8084310364 -18.0575400405
-18.1195153096 -17.8635757439 -18.4489331748
-19.0195016937 -18.9722399595 -18.8431464563
-18.3008352540 -18.0551635718 -17.3869046061
-18.3394327508 -18.6427551669 -18.3474596377
-18.1585493728 -18.0424122491 -18.2794326635
-17.6792975638 -17.9105221157 -17.2120765745
-17.9762142044 -18.6705510119 -17.8127621228
-18.0052653486 -18.2526503481 -18.7466593081
-15.6420552607 -15.8468806377 -16.0175912210
-16.5573737974 -16.9767535345 -17.1409583160
-16.9512234746 -16.9833145766 -16.7605236235
-15.9529745313 -16.1575453328 -16.3805464250
-16.9409957324 -16.9029684544 -17.2441725480
-17.4616257581 -17.1962640908 -17.1886025616
-19.0092553090 -18.6766893514 -18.5046533655
-19.3492762866 -19.2539015908 -19.5908825273
-19.8053271136 -19.0910432138 -19.2750830189
-17.6048806020 -18.0701180034 -18.1118894477
-17.4313247006 -17.2159975032 -16.9144156723
-17.7917730474 -18.2454687186 -17.9229162682
-19.5743284838 -18.8381876154 -19.1375386758
-17.4191943315 -17.1699308482 -17.7188537130
-16.5432995638 -16.8006280834 -16.5437396846
-18.8054065858 -18.2237196461 -18.1847676834
-18.8940499420 -18.9608657563 -18.8326958326
-19.9243202947 -20.2405437100 -19.5639893618
-20.4712849664 -20.6127684398 -20.7149511217
-22.7088418500 -22.7464708026 -22.1128494686
-22.6632441104 -22.5003563312 -22.8859169479
-23.4717419240 -23.7791958688 -23.5826482152
-23.9302889878 -23.2549409404 -23.8483497747
-23.3489311278 -22.9627199630 -22.3366958549
-22.5734422057 -22.5719978074 -22.3406738209
-23.8919806221 -23.4166297364 -23.8260917282
-24.8481119953 -25.4720128898 -25.6285413789
-26.5010586371 -26.6436630437 -25.8986160423
-24.5945893526 -25.0970595040 -25.1637454284
-23.7757080910 -24.7092386536 -23.8178176369
-24.6620774279 -24.6015272024 -24.6894994674
-23.5994734509 -23.9926020533 -23.8300560332
-23.1378448158 -23.3294677451 -23.3346473914
-24.3813161265 -23.9913799368 -24.2349723429
-23.1271793356 -24.0144975438 -23.8550160568
-23.7701459894 -23.5891886009 -23.8123608822
-25.0515673532 -24.3144085042 -24.9637130364
-25.3053357245 -25.5890512117 -25.4015166279
-26.0090571596 -25.3688186817 -25.3945940874
-24.3049437373 -23.8097816530 -24.0931522803
-25.3350806085 -24.6344409892 -24.8789811337
-25.2527571116 -25.0541083110 -25.1594768858
-24.6239594436 -24.7526331262 -25.5231819089
-24.4071156000 -24.7919796219 -24.3859237351
-26.1405345819 -25.8439485509 -26.1058481506
-25.0178094850 -25.1763213443 -24.8584656001
-23.5607435603 -22.9376075588 -23.3121774526
-22.2455526591 -21.4992019730 -21.7558672321
-21.6203299695 -22.0737768518 -21.2321305114
-20.0895615828 -20.4575491148 -19.9269805557
-19.7735532704 -19.6067982988 -19.4726206253
-18.8611688420 -18.9356760930 -18.5865940752
-19.0818445917 -19.2671376406 -19.1287447260
-18.8917330727 -18.9171805302 -18.9340510757
-19.0626522989 -19.4911959851 -20.2945095010
-20.8058048304 -20.5424970471 -19.8647274915
-21.1542987031 -20.7629207417 -20.8411916970
-22.1192131399 -22.0985254800 -22.2494018759
-22.9752744553 -23.0201243492 -22.7753195545
-23.9297172160 -23.2369342878 -23.7340991778
-23.8122870590 -23.8488629959 -24.0525008717
-21.6995760164 -22.1078950414 -22.3663955902
-20.6004951509 -19.7746436144 -20.7021216656
-18.9870082654 -19.4426672213 -18.9871652300
-19.1824698061 -18.2939114400 -18.5033551249
-19.4734686570 -18.9102324165 -19.8824985260
-19.6755174334 -19.1360792692 -18.9867606007
-20.3439367543 -20.4258847879 -20.3909677505
-21.0690216306 -21.4636434407 -21.3916431363
-21.6793455683 -22.0008884838 -21.6124200846
-22.4008842945 -22.1650624101 -21.8322281156
-21.7259665270 -21.2424922106 -21.0310260904
-22.0782180249 -22.0923959040 -22.0028756471
-19.9581334456 -19.6043368738 -19.5623923268
-20.1388520372 -20.2426715518 -19.8520323383
-19.9894926929 -19.5317757436 -19.4304526021
-20.9942066309 -21.2974583722 -21.1821860183
-20.0764365873 -20.2569388989 -20.2909507168
-22.1713880682 -21.4675004339 -20.5341890573
-21.6948409703 -21.3091358968 -21.5869816365
-21.5535287888 -21.6531721005 -21.3139336387
-20.7150342863 -20.1524833131 -21.0503509483
-20.4599883997 -19.6093840779 -19.9323580067
-19.5660529189 -19.4924464221 -19.6031239372
-20.0814586486 -19.8715390443 -19.7448371722
-17.8166214557 -17.4580781192 -17.5464315176
-18.8279575691 -18.3328666922 -17.8243685355
-18.6406703911 -18.3443530531 -18.1978431242
-18.5710709528 -18.5912124472 -18.9887000798
-19.1768146102 -18.8094546739 -18.7860800345
-19.6618671493 -19.5984374389 -19.6229621950
-19.6519515275 -20.2147361284 -20.2752340208
-19.3570406353 -19.4050393301 -19.5971820610
-20.5988939596 -20.0614746780 -20.0253428530
-19.0880941245 -19.5285391296 -19.6699936084
-20.5307803645 -20.2182096313 -19.7494296276
-18.6738363385 -18.8407397284 -19.4114945256
-18.8201019985 -18.9788729529 -19.0462280464
-17.4548071643 -17.1077567906 -17.0276304734
-16.6882627355 -17.1417437975 -17.1749019873
-17.8590366649 -17.3562486125 -17.5033731851
-16.0670198775 -16.0549229250 -15.4618962724
-14.8937526955 -14.8753153609 -14.6381346124
-13.5279452744 -13.4771678841 -13.2423968651
-12.0072751492 -11.5849020543 -11.6705675460
-10.8426248553 -11.0058831618 -11.4311144128
-12.0770804051 -11.9711328596 -12.6676686587
-11.6276602733 -11.3921174715 -10.9607554839
-11.3115854473 -11.9288291443 -11.4919796092
-10.8071028294 -11.5392874388 -11.6070678533
-9.8691030914 -9.5663708853 -9.9174034022
-10.5277470596 -10.6103458346 -10.1611682103
-10.0575098033 -9.4419641295 -9.6100358204
-7.4019029594 -6.5316390873 -7.3730743638
-6.2769448058 -5.8646678976 -7.0446270127
