* synthetic: r = 0 BY CONSTRUCTION.  Three independent random walks, no
* cointegration at all.  n = 200, seed 11.
*
* This is the null of the rank test, and the case that says whether the test
* invents relations that are not there.  drvec: LR(0->1) = 4.06 against a 10%
* critical value of 19.77 -- not rejected, r = 0.
1
3 200 1 1900
w1 w2 w3
1.0 0 0
0.0000000000 0.0000000000 0.0000000000
-1.2240726757 0.3775881983 0.9949996277
-1.7372826243 -0.9513910024 0.9294702227
-1.2592705221 0.1467937641 -0.2864043769
-2.5521349729 0.8527216667 0.1876813364
-1.0183492442 1.8351805739 0.0858998393
-1.2925858661 4.4057086249 -0.2029021163
-2.0775212445 3.2673652584 -0.1074412931
-1.9322077792 2.9224996614 -0.1695996397
-1.6591157738 3.6148970828 0.9272024840
-1.4492996529 1.8251158124 1.6289271502
-2.8689967775 1.6536987013 0.1551306660
-2.8668961345 0.8751331717 0.3690168339
0.4334120603 0.8265275808 1.2113407866
-0.8899132114 0.5384735411 1.8738261062
-0.9825831164 0.9086550863 1.9771547532
-1.9887180802 1.4723996880 1.1651287885
-0.1169656140 0.9671959178 1.8512219824
-0.1146164625 1.9196261814 1.2490715664
0.8842496502 1.7957280865 2.5123773058
1.5084442539 1.9370220040 1.7320935225
2.2762473401 2.4051745115 3.3739890812
1.8992208699 2.9599340631 3.8819231015
2.1821936098 3.1683817701 4.0640462987
1.5837974876 2.1539140317 3.6675781653
2.1746138384 3.6651001080 4.6446714117
3.2278650409 4.4423962500 5.3431499969
3.4112166628 5.2139155595 7.1168310192
3.0835876083 4.5201109274 9.0769169722
3.3282772232 5.4910816667 9.9507811055
2.1925447931 7.9245626403 11.7265938047
2.3694900339 8.6770589711 11.8535032804
1.4853331396 8.5650052336 12.2275453228
2.6011349483 9.2742674497 12.2870605681
3.9559297449 8.5135503323 13.0799561855
5.0681152625 8.2215349460 11.2893372880
4.1618172212 8.4585556965 11.8171752661
5.7100297767 7.4543844609 11.8192193926
6.3588331074 7.2966889926 9.4495156444
7.1652977665 9.6089434745 10.4538262279
6.2478604012 9.1965516551 10.6756479968
8.7369079255 9.8139455563 10.7892967122
10.2944042273 9.7322437789 12.6506574156
9.6093983280 9.2574300732 13.3715266781
11.0337593144 9.9113499212 13.6731180152
9.2121305772 9.1984924401 13.0624830463
8.6785178100 9.7849323431 12.7273004688
9.4661955971 9.8672609255 12.3944941578
9.5843493623 10.2960183481 13.2526233655
9.1068473156 10.0633211005 11.8890006700
10.7106713523 11.5151036762 11.7101688345
10.2322902419 10.2792196422 11.8800692608
10.4385791720 12.4609475097 12.1264053622
9.6607085320 10.0163100105 13.5357846091
9.8500945746 8.4070168728 13.7161575302
8.2415125776 11.8874112307 14.8350978068
8.8139712640 11.7123198927 12.6953700960
8.6875742405 10.1577375941 13.2915895208
6.5486981013 9.2500173423 14.5111534346
8.1925510862 8.0688299572 12.9771920204
9.0719434770 8.9219110833 11.9906355445
8.3776484906 8.2279602329 10.8012110092
7.6974396889 9.4787008011 11.4908804130
9.7540402167 9.3923594278 11.3555116476
8.7716208969 9.2685530734 10.0424176697
6.9942312450 9.9655304043 11.4825273007
7.8311034565 11.2979484991 11.7348765697
7.1128771284 11.3842980841 11.3608285871
6.0013849308 9.6918124216 9.8780642036
5.9958616923 9.8425198493 9.4034827429
7.4248581538 10.0215186155 9.9862967812
8.6434576090 9.2014113693 8.0164890022
9.3958237226 8.5129626978 9.3274667572
9.7333985133 9.5196527734 10.0911457468
7.6528310059 10.2388812790 9.4180285134
6.8967227039 9.8037732612 10.1861833301
7.7811153760 10.8150432519 8.5264897599
7.1905431795 8.4396074810 8.4244836806
7.7906731706 7.6756103555 8.6692792233
8.0220237561 8.6832293368 7.8478809621
7.1930185957 7.9199511271 9.6004732438
8.2836243858 7.7963312888 9.8260852543
8.3980072487 7.9993528794 9.6174481034
8.0638269276 6.7427812423 8.9756131137
9.7142238587 7.2793418342 9.0403639819
9.4994012078 7.3419989548 9.3937111801
8.8534812069 7.5383464289 9.6337276324
8.1048805212 6.7493505028 8.6347367252
7.0415421851 7.6392298305 6.2745792959
6.7747691740 7.0281050505 5.6547617789
6.8723706177 8.1560384660 5.7311819265
6.7321289917 7.5436355400 5.6022233830
7.6441976137 7.1495888012 4.4557380703
6.3800576563 6.0428726955 3.0658139437
7.4790999067 6.3980554374 2.8284464095
8.9386241670 5.7402008891 3.5814579188
9.7395910365 4.1939226993 2.0244912143
8.8120829105 5.1006532742 3.3205923085
7.5845126785 6.1491952438 2.9375626478
7.1910477612 5.5980637208 2.6135651161
5.3727178927 4.5968157415 1.3779264730
5.8632162491 6.6858959962 4.1097216353
5.5267066488 4.9645263076 3.7026682565
4.5874285310 6.9478113105 4.2736490300
3.8587596473 7.8835914866 4.8095348295
2.2334723509 7.3520927373 4.5701905826
2.2523886064 7.4842123642 4.2311544310
2.4422757954 6.8980440688 3.3346436437
3.9580986835 7.2583321086 3.7729545699
2.3631234857 7.0921295601 4.5921257660
1.0718938134 8.1899400243 4.2027034634
1.4745796929 8.0567298995 4.4211997280
2.6779734074 7.6532821001 5.9855992738
1.8959990925 6.7215724104 6.6966253927
0.8300387034 6.3511892297 7.6037182776
2.0405361090 4.5762541209 8.1096612630
3.9243013063 5.7712310912 7.8695478244
3.3236608689 5.4746881865 6.7167107603
3.0590896096 5.2874182129 6.5710195818
4.2416443366 5.0572476238 5.1132644682
5.2926153961 3.9845167245 4.6660264170
5.1588173315 3.6403625045 3.6629643018
4.9098866430 5.8245076303 3.0560741475
4.7735431316 6.9483994865 3.8007448658
5.5368576091 7.8105708777 1.8327583269
4.6727525719 7.9389140189 2.3316084213
5.9670738755 8.4085061140 2.0933444157
6.0063631711 8.1974244861 2.3403703667
6.6806047490 7.8576151319 1.5267437799
5.8258643203 8.9545916217 2.8077279481
6.8180223498 9.8114476585 3.6410423728
6.8157132663 10.4752337192 2.5889481304
6.6126037595 9.7415101474 3.3159149973
6.0326389855 9.6333375350 3.7162863115
7.3873818061 8.8413888007 2.7775414980
8.2046545482 7.7350087866 3.2299425141
7.6345846289 7.6293078737 1.4090507380
8.3480260366 7.1290808202 0.5103957178
10.4251093964 7.8409227012 4.0192250716
10.8329826038 7.4927508061 4.1269332102
12.4398011440 7.4658073035 4.5779040092
12.9563861119 6.5557386344 4.7067704668
12.4536429016 5.3102635294 5.5788495847
13.1192713692 5.3848448304 4.6714244544
11.1134756462 5.8703418723 4.5736737011
9.4296418246 5.8102130733 3.0524915217
9.4030161934 5.9532473987 3.4072735599
9.6200354221 6.1241620928 2.2674036857
9.2363882735 5.6128828825 2.0317312225
9.5064063632 6.2319033938 3.6667415089
6.9376937004 6.6329450726 3.4683708980
9.2138138457 7.5664606237 1.8152864321
9.6154029145 7.0457566554 2.8088580199
8.5598556585 6.9440564385 2.6773032723
8.4630962711 6.3599957474 0.8393575116
8.9235192548 7.3590471653 0.7710861130
7.9062963414 7.5620771201 1.3364263521
7.7305626237 7.5481790273 2.7451638268
6.6118717001 6.9902733595 0.8395278717
5.9120057798 6.2507270326 -0.1206422884
5.2180343608 8.0477065895 -0.3169709851
5.1037903604 10.2458688172 -0.3776237407
3.3699020257 10.6488763027 -1.3147010581
5.0086974400 9.4029883006 -1.8951461598
3.4028224873 9.5004638588 -2.9107217317
3.3373728326 9.1235760313 -3.5236908276
4.2805877234 10.0590424293 -3.4613266771
3.3803128660 8.9885540728 -3.1913986002
5.7711755419 8.5317369679 -3.9760900041
5.0737884328 7.4364661742 -4.9483159183
4.8687544001 8.8703162389 -4.9493338110
4.3580320741 7.2554026963 -4.7361417725
4.3312176534 6.0289990131 -5.8228029731
4.2889947042 7.0414518349 -5.1961729400
4.4945899845 6.7181561916 -4.8756148968
4.4824740439 8.8909880872 -6.0079254957
4.1141102001 10.1590580704 -6.2735538073
5.5390207368 10.1152208184 -6.1280888516
5.1684122839 8.7347383470 -7.0987823192
7.3834894102 9.3799928838 -6.4930029971
8.3371383598 9.9491960216 -5.4710120347
8.0711309500 9.7258169641 -4.4872489698
7.7188623211 8.3951183704 -4.7131074310
7.1741052849 9.0085394407 -5.4332544517
6.1128419292 8.6764674322 -3.8803434291
6.0649184482 8.8374844539 -3.8710980035
6.3604621295 9.7658483699 -2.4753061897
4.7160883799 11.1269662326 -2.4786056194
4.3952943442 13.5253968844 -2.6481290852
6.3401135130 14.4934185856 -3.6777839242
6.8284644556 15.2302548441 -3.8031975760
4.5004998351 14.8861007230 -3.9948040183
3.3928771120 16.7118839700 -4.2392106458
2.9995257111 16.4121829279 -5.0227805646
2.2233259704 16.5060552679 -4.7095600987
1.7160475589 16.4155500150 -6.0996901780
2.2377026436 15.6660315265 -5.8847583861
1.3308696567 15.1507699295 -5.6697039936
0.1196470809 17.6202629657 -5.7064090549
0.0468902632 16.8858223648 -4.1116239941
