************************************************
* Input file for program FUE                   *
* DOCTYPE ATSW-interface SYSTEM                *
************************************************

** Frequency of time series: either 1(A), 4(Q) or 12(M):
 12
** Number of observations and starting date of time series:
 216  1 2002 WTI
** Number of deterministic variables (including seasonal components):
0
** Number and orders of regular AR operators:
0
** Number and orders of annual AR operators:
0
** Number and orders of regular MA operators:
0
** Number and orders of anual MA operators:
0
** Number and frequencies of regular AR(2) operators with fixed frequency:
0
** Number and frequencies of regular MA(2) operators with fixed frequency:
0
** Mean parameter (mu):
0
** Box-Cox lambda, m. Regular differences and complete annual differences:
 1.00  0  0
** Individual factors of the annual difference (starting at freq 0.0):
0 0 0 0 0 0 0
** ACF/PACF bands (0 Automatic) and reescaling factor:
 0 100.00
** Time series (stochastic and non-standard deterministic variables):
19.670000 
20.740000 
24.420000 
26.270000 
27.020000 
25.520000 
26.940000 
28.380000 
29.670000 
28.850000 
26.270000 
29.420000 
32.940000 
35.870000 
33.550000 
28.250000 
28.140000 
30.720000 
30.760000 
31.590000 
28.290000 
30.330000 
31.090000 
32.150000 
34.270000 
34.740000 
36.760000 
36.690000 
40.280000 
38.020000 
40.690000 
44.940000 
45.950000 
53.130000 
48.460000 
43.330000 
46.840000 
47.970000 
54.310000 
53.040000 
49.830000 
56.260000 
58.700000 
64.970000 
65.570000 
62.370000 
58.300000 
59.430000 
65.510000 
61.630000 
62.900000 
69.690000 
70.940000 
70.960000 
74.410000 
73.050000 
63.870000 
58.880000 
59.370000 
62.030000 
54.570000 
59.260000 
60.560000 
63.970000 
63.460000 
67.480000 
74.180000 
72.390000 
79.930000 
86.200000 
94.620000 
91.730000 
92.950000 
95.350000 
105.560000 
112.570000 
125.390000 
133.930000 
133.440000 
116.610000 
103.900000 
76.650000 
57.440000 
41.020000 
41.740000 
39.160000 
47.980000 
49.790000 
59.160000 
69.680000 
64.090000 
71.060000 
69.460000 
75.820000 
78.080000 
74.300000 
78.220000 
76.420000 
81.240000 
84.480000 
73.840000 
75.350000 
76.370000 
76.820000 
75.310000 
81.900000 
84.140000 
89.040000 
89.420000 
89.580000 
102.940000 
110.040000 
101.330000 
96.290000 
97.190000 
86.330000 
85.610000 
86.410000 
97.210000 
98.570000 
100.240000 
102.250000 
106.190000 
103.330000 
94.700000 
82.410000 
87.930000 
94.160000 
94.720000 
89.570000 
86.660000 
88.250000 
94.690000 
95.320000 
93.050000 
92.070000 
94.800000 
95.800000 
104.610000 
106.570000 
106.290000 
100.540000 
93.860000 
97.630000 
94.620000 
100.820000 
100.800000 
102.070000 
102.180000 
105.790000 
103.590000 
96.540000 
93.210000 
84.400000 
75.790000 
59.290000 
47.220000 
50.580000 
47.820000 
54.450000 
59.270000 
59.820000 
50.900000 
42.870000 
45.480000 
46.220000 
42.440000 
37.190000 
31.680000 
30.320000 
37.550000 
40.750000 
46.710000 
48.760000 
44.650000 
44.720000 
45.180000 
49.780000 
45.660000 
51.970000 
52.500000 
53.470000 
49.330000 
51.060000 
48.480000 
45.180000 
46.630000 
48.040000 
49.820000 
51.580000 
56.640000 
57.880000 
63.700000 
62.230000 
62.730000 
66.250000 
69.980000 
67.870000 
70.980000 
68.060000 
70.230000 
70.750000 
56.960000 
49.520000 
51.380000 
54.950000 
58.150000 
63.860000 
60.830000 
54.660000 
57.350000 
54.810000 
56.950000 
53.960000 
57.030000 
59.880000 
