* Mink-Muskrat fur sales, Hudson's Bay Co., annual 1850-1911 (Jones 1914)
* M=2, r=1, s=1.  All series in LEVELS (drvec's default layout).
* Column order is [Y_2 block ; Y_1 block]:
*   Col 1: log muskrat = Y_2 (nonstationary; drvec forms nabla Y_2)
*   Col 2: log mink    = Y_1 (the cointegrating block, kept in levels)
* Mauricio (2006) CSDA 50, 3644-3662, Tables 2/4/5
1
2 62 1 1850
muskrat mink
1.0 0 0
12.07523476 10.29617133
12.17912274 9.95944246
12.58632250 10.12097514
13.11019363 10.13269270
13.14664810 10.65431384
12.75311254 10.83641906
12.46383403 11.02810866
12.61906601 11.03409903
12.65556102 11.24152348
12.44605758 11.05507173
12.08554773 10.70839970
12.23572853 10.34477015
12.72303440 10.80875778
12.78565911 10.69105816
13.14171296 11.03047672
12.94412149 11.00765107
12.67864797 10.84747127
12.92917661 10.97594408
13.33437480 11.20606057
12.90959828 11.21644480
12.35557396 10.22947646
13.00357759 10.37302232
13.46565375 10.57811428
13.55140959 10.70862324
13.41798683 11.00922440
13.16886903 11.18820589
13.27648949 11.27990833
12.98796532 11.27796234
13.09402563 11.34147263
13.12181723 11.04436080
13.07752918 10.46515837
13.62801645 10.49570881
13.84438563 10.72766300
13.88240536 10.76865340
13.89530739 10.86456043
13.61339805 11.61569864
12.75722414 11.24508523
12.84827384 11.07136157
12.75094601 11.32687296
12.31767663 10.61516204
12.68280360 10.47435410
13.26167652 10.29143342
13.59996680 10.65169094
13.74792313 10.97114223
13.38270560 10.83594687
13.42218793 10.84515359
13.60868194 11.15951661
13.22078870 11.24327976
13.25151971 11.16204797
13.46095765 10.64158420
13.55120772 10.73591830
13.74100143 10.77505285
14.31641553 10.96162501
14.21313635 11.10569380
13.73694235 10.90912527
13.87023830 10.93303554
13.45176784 11.00298278
12.91772750 10.57564090
12.05767704 9.97738836
12.61882778 9.79015087
13.52668383 9.98911464
13.77842844 10.40450524
