* Bivariate WTI IPC_DE (to 12/2019)
** Frequency (1=A, 4=Q, 12=M):
 12
** Series, observations, start (subperiod year):
 2 216 1 2002
** Series names:
 WTI IPC_DE
** Box-Cox lambda, regular differences, annual differences:
 0.0 1 0
** Data:
19.6700 77.7000
20.7400 78.0000
24.4200 78.2000
26.2700 78.1000
27.0200 78.2000
25.5200 78.2000
26.9400 78.3000
28.3800 78.2000
29.6700 78.2000
28.8500 78.1000
26.2700 77.8000
29.4200 78.5000
32.9400 78.5000
35.8700 79.0000
33.5500 79.0000
28.2500 78.8000
28.1400 78.6000
30.7200 78.9000
30.7600 79.0000
31.5900 79.0000
28.2900 79.0000
30.3300 79.0000
31.0900 78.8000
32.1500 79.4000
34.2700 79.4000
34.7400 79.6000
36.7600 79.9000
36.6900 80.1000
40.2800 80.3000
38.0200 80.3000
40.6900 80.4000
44.9400 80.5000
45.9500 80.3000
53.1300 80.4000
48.4600 80.3000
43.3300 81.2000
46.8400 80.6000
47.9700 80.9000
54.3100 81.3000
53.0400 81.0000
49.8300 81.2000
56.2600 81.3000
58.7000 81.7000
64.9700 81.8000
65.5700 81.9000
62.3700 81.9000
58.3000 81.7000
59.4300 82.3000
65.5100 82.0000
61.6300 82.4000
62.9000 82.4000
69.6900 82.7000
70.9400 82.7000
70.9600 82.9000
74.4100 83.2000
73.0500 83.0000
63.8700 82.7000
58.8800 82.8000
59.3700 82.8000
62.0300 83.5000
54.5700 83.5000
59.2600 83.8000
60.5600 84.0000
63.9700 84.4000
63.4600 84.4000
67.4800 84.5000
74.1800 84.9000
72.3900 84.8000
79.9300 84.9000
86.2000 85.1000
94.6200 85.6000
91.7300 86.1000
92.9500 85.8000
95.3500 86.2000
105.5600 86.6000
112.5700 86.4000
125.3900 86.9000
133.9300 87.2000
133.4400 87.7000
116.6100 87.4000
103.9000 87.4000
76.6500 87.2000
57.4400 86.8000
41.0200 87.0000
41.7400 86.6000
39.1600 87.1000
47.9800 87.0000
49.7900 87.0000
59.1600 87.0000
69.6800 87.3000
64.0900 87.3000
71.0600 87.5000
69.4600 87.1000
75.8200 87.2000
78.0800 87.1000
74.3000 87.8000
78.2200 87.3000
76.4200 87.6000
81.2400 88.1000
84.4800 88.1000
73.8400 88.1000
75.3500 88.1000
76.3700 88.2000
76.8200 88.3000
75.3100 88.2000
81.9000 88.3000
84.1400 88.4000
89.0400 89.0000
89.4200 88.7000
89.5800 89.3000
102.9400 89.8000
110.0400 89.8000
101.3300 89.8000
96.2900 89.9000
97.1900 90.1000
86.3300 90.2000
85.6100 90.3000
86.4100 90.4000
97.2100 90.5000
98.5700 90.7000
100.2400 90.6000
102.2500 91.2000
106.1900 91.7000
103.3300 91.6000
94.7000 91.5000
82.4100 91.4000
87.9300 91.7000
94.1600 92.1000
94.7200 92.2000
89.5700 92.2000
86.6600 92.2000
88.2500 92.5000
94.6900 92.1000
95.3200 92.6000
93.0500 93.0000
92.0700 92.6000
94.8000 93.0000
95.8000 93.1000
104.6100 93.5000
106.5700 93.5000
106.2900 93.5000
100.5400 93.3000
93.8600 93.5000
97.6300 93.9000
94.6200 93.3000
100.8200 93.8000
100.8000 94.0000
102.0700 93.9000
102.1800 93.8000
105.7900 94.0000
103.5900 94.3000
96.5400 94.3000
93.2100 94.3000
84.4000 94.1000
75.7900 94.1000
59.2900 94.0000
47.2200 93.1000
50.5800 93.8000
47.8200 94.3000
54.4500 94.7000
59.2700 94.9000
59.8200 94.9000
50.9000 95.1000
42.8700 95.0000
45.4800 94.9000
46.2200 94.9000
42.4400 94.3000
37.1900 94.3000
31.6800 93.6000
30.3200 93.9000
37.5500 94.5000
40.7500 94.6000
46.7100 95.1000
48.7600 95.2000
44.6500 95.5000
44.7200 95.4000
45.1800 95.5000
49.7800 95.6000
45.6600 95.0000
51.9700 95.6000
52.5000 95.1000
53.4700 95.6000
49.3300 95.8000
51.0600 96.2000
48.4800 96.2000
45.1800 96.5000
46.6300 96.9000
48.0400 97.0000
49.8200 97.0000
51.5800 96.9000
56.6400 96.5000
57.8800 96.9000
63.7000 96.4000
62.2300 96.7000
62.7300 97.2000
66.2500 97.5000
69.9800 98.2000
67.8700 98.3000
70.9800 98.7000
68.0600 98.8000
70.2300 99.0000
70.7500 99.1000
56.9600 98.5000
49.5200 98.5000
51.3800 97.7000
54.9500 98.1000
58.1500 98.5000
63.8600 99.4000
60.8300 99.6000
54.6600 99.9000
57.3500 100.3000
54.8100 100.2000
56.9500 100.2000
53.9600 100.2000
57.0300 99.5000
59.8800 100.0000
