* Bivariate WTI IPC_ES (extended to 2023-11)
** Frequency (1=A, 4=Q, 12=M):
 12
** Series, observations, start (subperiod year):
 2 263 1 2002
** Series names:
 WTI IPC_ES
** Box-Cox lambda, regular differences, annual differences:
 0.0 1 0
** Data:
19.6700 69.5300
20.7400 69.5900
24.4200 70.1650
26.2700 71.1180
27.0200 71.3740
25.5200 71.3770
26.9400 70.8820
28.3800 71.0850
29.6700 71.3510
28.8500 72.0580
26.2700 72.1690
29.4200 72.4090
32.9400 72.1110
35.8700 72.2640
33.5500 72.7650
28.2500 73.3570
28.1400 73.2890
30.7200 73.3380
30.7600 72.8780
31.5900 73.2130
28.2900 73.4310
30.3300 73.9260
31.0900 74.1670
32.1500 74.2940
34.2700 73.7730
34.7400 73.8070
36.7600 74.3220
36.6900 75.3400
40.2800 75.7840
38.0200 75.9040
40.6900 75.3280
44.9400 75.6610
45.9500 75.7960
53.1300 76.5750
48.4600 76.7670
43.3300 76.6920
46.8400 76.0460
47.9700 76.2430
54.3100 76.8460
53.0400 77.9530
49.8300 78.1020
56.2600 78.2840
58.7000 77.8050
64.9700 78.1470
65.5700 78.6270
62.3700 79.2660
58.3000 79.3860
59.4300 79.5570
65.5100 79.2340
61.6300 79.2720
62.9000 79.8330
69.6900 80.9590
70.9400 81.2510
70.9600 81.3740
74.4100 80.8900
73.0500 81.0550
63.8700 80.9220
58.8800 81.2540
59.3700 81.4550
62.0300 81.6780
54.5700 81.1290
59.2600 81.1840
60.5600 81.8000
63.9700 82.9300
63.4600 83.1580
67.4800 83.3110
74.1800 82.7040
72.3900 82.8180
79.9300 83.0900
86.2000 84.1670
94.6200 84.7700
91.7300 85.1250
92.9500 84.5980
95.3500 84.7300
105.5600 85.4820
112.5700 86.4020
125.3900 86.9850
133.9300 87.4860
133.4400 87.0660
116.6100 86.8790
103.9000 86.8610
76.6500 87.1600
57.4400 86.7900
41.0200 86.3450
41.7400 85.2810
39.1600 85.2900
47.9800 85.4300
49.7900 86.2640
59.1600 86.2340
69.6800 86.6140
64.0900 85.8740
71.0600 86.1740
69.4600 85.9710
75.8200 86.5840
78.0800 87.0530
74.3000 87.0310
78.2200 86.1580
76.4200 86.0010
81.2400 86.6390
84.4800 87.5620
73.8400 87.7560
75.3500 87.9130
76.3700 87.5190
76.8200 87.7400
75.3100 87.8010
81.9000 88.6030
84.1400 89.0840
89.0400 89.6310
89.4200 88.9750
89.5800 89.0880
102.9400 89.7540
110.0400 90.8710
101.3300 90.8410
96.2900 90.7130
97.1900 90.2260
86.3300 90.3380
85.6100 90.5590
86.4100 91.2730
97.2100 91.6430
98.5700 91.7620
100.2400 90.7530
102.2500 90.8470
106.1900 91.4580
103.3300 92.7430
94.7000 92.6060
82.4100 92.4330
87.9300 92.2170
94.1600 92.7360
94.7200 93.6490
89.5700 94.4450
86.6600 94.3280
88.2500 94.3940
94.6900 93.1880
95.3200 93.3490
93.0500 93.6780
92.0700 94.0280
94.8000 94.2010
95.8000 94.3400
104.6100 93.8530
106.5700 94.1450
106.2900 93.9690
100.5400 94.3510
93.8600 94.5470
97.6300 94.6320
94.6200 93.3730
100.8200 93.3330
100.8000 93.5410
102.0700 94.3730
102.1800 94.3950
105.7900 94.4210
103.5900 93.5330
96.5400 93.6810
93.2100 93.8240
84.4000 94.2610
75.7900 94.1950
59.2900 93.6460
47.2200 92.1410
50.5800 92.3310
47.8200 92.9200
54.4500 93.7740
59.2700 94.2220
59.8200 94.4740
50.9000 93.5970
42.8700 93.2860
45.4800 92.9990
46.2200 93.5950
42.4400 93.9370
37.1900 93.6630
31.6800 91.8760
30.3200 91.5520
37.5500 92.1390
40.7500 92.7850
46.7100 93.2920
48.7600 93.7230
44.6500 93.0410
44.7200 93.1610
45.1800 93.1650
49.7800 94.2300
45.6600 94.5720
51.9700 95.1320
52.5000 94.6090
53.4700 94.2690
49.3300 94.2490
51.0600 95.1540
48.4800 95.0970
45.1800 95.1380
46.6300 94.4820
48.0400 94.6700
49.8200 94.8350
51.5800 95.7100
56.6400 96.1470
57.8800 96.1900
63.7000 95.1530
62.2300 95.2810
62.7300 95.3930
66.2500 96.1810
69.9800 97.0480
67.8700 97.3020
70.9800 96.6040
68.0600 96.7420
70.2300 96.9780
70.7500 97.8750
56.9600 97.7680
49.5200 97.3290
51.3800 96.0850
54.9500 96.3200
58.1500 96.6690
63.8600 97.6440
60.8300 97.8340
54.6600 97.7190
57.3500 97.1130
54.8100 97.0590
56.9500 97.0590
53.9600 98.0010
57.0300 98.1670
59.8800 98.0960
57.5200 97.1390
50.5400 97.0240
29.2100 96.6520
16.5500 96.9440
28.5600 96.9380
38.3100 97.3850
40.7100 96.5110
42.3400 96.5550
39.6300 96.7000
39.4000 97.2080
40.9400 97.3670
47.0200 97.5740
52.0000 97.5830
59.0400 97.0080
62.3300 97.9490
61.7200 99.1050
65.1700 99.5720
71.3800 100.0460
72.4900 99.2920
67.7300 99.7430
71.6500 100.5750
81.4800 102.4250
79.1500 102.7380
71.7100 103.9650
83.2200 103.5670
91.6400 104.4030
108.5000 107.5795
101.7800 107.3750
109.5500 108.2620
114.8400 110.2670
101.6200 109.9860
93.6700 110.2650
84.2600 109.7437
87.5500 109.4141
84.3700 109.1989
76.4400 109.4764
78.1200 110.5071
76.8300 111.6658
73.2800 111.6312
79.4500 111.2824
71.5800 111.1152
70.2500 111.7486
76.0700 112.8447
81.3900 113.4005
89.4300 113.6024
85.6400 113.2085
77.6900 112.6692
