* par de mercados para drvec, generado por drvec_par.py
* mercado: /home/david/Dropbox/Cycles/Analysis/Nominales/Arevalo/A.1700_1813/A.1.inp
* Londres: /home/david/Dropbox/Cycles/Analysis/Nominales/Inglaterra/Londres/A.1700_1792/E.L.1.inp
* muestra: 1700-1812 (solape de los dos ficheros de fue)
*
* Col 1 = Y2 = log Londres;  col 2 = Y1 = log mercado.
* W = log p_mercado + B2 * log p_Londres, luego la ley de un precio
* unico es B2 = -1 -- lo que el analisis de precios relativos impone.
1
2 113 1 1700
lLondon lMarket
1.0 0 0
-0.4719184897 -0.1541504397
-0.6442635920 -0.9948037578
-0.5878891844 -1.0884596763
-0.2741495778 -0.9948037578
-0.6466488798 -0.8755501335
-0.8204098977 -0.9948037497
-0.7877503311 -0.5959831928
-0.6320500803 -0.5749052280
-0.0458750193 -0.7146671837
0.3170664360 -0.3781949325
-0.1183300985 -0.3781949325
-0.2156208956 -0.1268805074
-0.3617988680 -0.7926287224
-0.0349751684 -0.7926287224
-0.4870187340 -0.7926287224
-0.1504087469 -1.0543445352
-0.2851214746 -1.1782911850
-0.3703434943 -1.2163678735
-0.7040734988 -1.3590241952
-0.4729744560 -1.5131748686
-0.4729744560 -1.9388426627
-0.6737860313 -1.9611995891
-0.5652148674 -1.5703332637
-0.5927007414 -0.7659604620
-0.3368710963 -0.9235380554
-0.2851214746 -1.1370241586
-0.5384643012 -1.1967433996
-0.1319844797 -1.3354936860
-0.1353708696 -1.2262442146
-0.5160440881 -0.7888314403
-0.6301937589 -0.7888314403
-0.8004225566 -0.9492419336
-0.7916659332 -1.3267142375
-0.7185548459 -0.9584416298
-0.4873402257 -0.4130984884
-0.4222994192 -0.4130984884
-0.6320500803 -1.1966393930
-0.6687618661 -0.4503403528
-0.6474033120 -0.4734800811
-0.3302540334 -0.8414429870
-0.0085330183 -0.8099523145
-0.6421341993 -0.7146421306
-0.8838424059 -0.6550876028
-1.0264286004 -1.0648445699
-1.0040782560 -1.4921595374
-0.6580255667 -1.3207779308
-0.5912726799 -1.0976343870
-0.6294521942 -1.2029949159
-0.5718408725 -0.8099523145
-0.6368927048 -0.5868087632
-0.6063700191 -0.5868087632
-0.3712019862 -0.8099523145
-0.3809834221 -0.7376316446
-0.4222994192 -0.4734800811
-0.6687618661 -0.4734800811
-0.5101054365 -0.4734800811
-0.0141263209 -1.4543093395
-0.1840253577 -1.3207779308
-0.4828487200 -1.5030994951
-0.5572522151 -1.2601533200
-0.5714910387 -1.0330958771
-0.5714910387 -0.4734800811
-0.5055107451 -0.4734800811
-0.2888056893 -0.4734800811
-0.2579141998 -0.4734800811
-0.2777935172 -0.4734800811
0.0189736275 -0.4980655476
0.0162567619 -0.4212943217
-0.2178286727 -0.1813436551
-0.3691999835 -0.2437865979
-0.1547800871 0.0065180811
-0.0167338843 -0.8612455994
0.0816936356 -0.7246062279
-0.0252050927 -0.1850409269
0.1068567175 -0.5267902158
-0.3036798015 -0.6445732493
-0.2161110916 -0.5645305431
-0.0842358871 -0.6239539718
-0.3801164952 -0.6037512555
-0.3882371896 -0.4049004076
-0.0169347480 -0.2117091737
-0.0518897631 -0.4904225722
0.0214898390 -0.8022022014
-0.0411302966 -0.7781046392
-0.1301830830 -0.7545741529
-0.2467295382 -0.5267902158
-0.2502747433 -0.3633546033
-0.0795199084 -0.0979263510
-0.0506423617 -0.0979263510
0.1093385482 -0.1467165185
0.0330217754 -0.1980098165
-0.1816540026 -0.5774994363
0.0238068897 -0.7001017677
0.0106053778 -0.1980098165
0.2198557171 -0.0979263510
0.6789206943 0.1394018341
0.1228795975 -0.1849377280
0.2459856556 0.0087903811
0.1155163104 0.3833233247
0.7939508263 -0.2287403593
1.0760369133 -0.2802479078
0.5032881257 0.1852814387
0.1985459305 0.3540587687
0.1192047311 0.3540587687
0.6856096825 0.7695742134
0.4882502484 0.3985105276
0.5322381352 -0.3463877109
0.4127426958 -0.5397591057
0.6398001465 -0.6575421500
0.8545754481 -0.8911569971
0.7246390264 -0.7910735316
0.9770161541 0.1156477442
0.9294334391 0.7287522160
