* par de mercados para drvec, generado por drvec_par.py
* mercado: /home/david/Dropbox/Cycles/Analysis/Nominales/Milan/A.1701_1813/M.1.inp
* Londres: /home/david/Dropbox/Cycles/Analysis/Nominales/Inglaterra/Londres/A.1700_1792/E.L.1.inp
* muestra: 1701-1812 (solape de los dos ficheros de fue)
*
* Col 1 = Y2 = log Londres;  col 2 = Y1 = log mercado.
* W = log p_mercado + B2 * log p_Londres, luego la ley de un precio
* unico es B2 = -1 -- lo que el analisis de precios relativos impone.
1
2 112 1 1701
lLondon lMarket
1.0 0 0
-0.6442635920 -0.5938521689
-0.5878891844 -0.4659246795
-0.2741495778 -0.5938521689
-0.6466488798 -0.6519799017
-0.8204098977 -0.5938521689
-0.7877503311 -0.4293352414
-0.6320500803 -0.3180045470
-0.0458750193 -0.2950556170
0.3170664360 -0.1312286403
-0.1183300985 -0.2726215470
-0.2156208956 -0.5568964562
-0.3617988680 -0.6346741612
-0.0349751684 -0.5523715608
-0.4870187340 -0.4974730344
-0.1504087469 -0.5915019822
-0.2851214746 -0.6009360159
-0.3703434943 -0.6080704204
-0.7040734988 -0.6080704204
-0.4729744560 -0.7110471331
-0.4729744560 -0.8468486746
-0.6737860313 -0.8438229648
-0.5652148674 -0.9657687275
-0.5927007414 -1.0699922376
-0.3368710963 -1.2165957056
-0.2851214746 -1.0219238402
-0.5384643012 -0.7937388630
-0.1319844797 -0.7908694090
-0.1353708696 -0.7570633887
-0.5160440881 -0.7312923859
-0.6301937589 -0.7961800074
-0.8004225566 -0.8990606755
-0.7916659332 -0.9178112122
-0.7185548459 -0.5854031138
-0.4873402257 -0.1516833412
-0.4222994192 -0.2152448161
-0.6320500803 -0.4621048906
-0.6687618661 -0.7749809228
-0.6474033120 -0.8872127491
-0.3302540334 -0.7815510757
-0.0085330183 -0.6078482924
-0.6421341993 -0.6010378270
-0.8838424059 -0.5654785202
-1.0264286004 -0.5589496648
-1.0040782560 -0.6010378270
-0.6580255667 -0.7142802797
-0.5912726799 -0.4494269800
-0.6294521942 -0.3956151536
-0.5718408725 -0.3204016746
-0.6368927048 -0.5363171733
-0.6063700191 -0.5235499355
-0.3712019862 -0.4492970969
-0.3809834221 -0.3925572689
-0.4222994192 -0.5670801345
-0.6687618661 -0.6814262795
-0.5101054365 -0.6327492386
-0.0141263209 -0.5195013493
-0.1840253577 -0.5276149965
-0.4828487200 -0.6395597038
-0.5572522151 -0.6237401548
-0.5714910387 -0.6372843912
-0.5714910387 -0.7300976790
-0.5055107451 -0.8648323924
-0.2888056893 -0.8475905932
-0.2579141998 -0.6103025190
-0.2777935172 -0.5038190439
0.0189736275 -0.4021015263
0.0162567619 -0.3147860490
-0.2178286727 -0.4039280051
-0.3691999835 -0.5242279180
-0.1547800871 -0.4977767321
-0.0167338843 -0.3609876015
0.0816936356 -0.2786573315
-0.0252050927 -0.0990275667
0.1068567175 -0.1017266262
-0.3036798015 -0.1360942625
-0.2161110916 -0.5038190439
-0.0842358871 -0.3401896195
-0.3801164952 -0.1180757572
-0.3882371896 -0.2437884993
-0.0169347480 -0.4642099013
-0.0518897631 -0.4468851252
0.0214898390 -0.2100946596
-0.0411302966 -0.1417043807
-0.1301830830 -0.1848144976
-0.2467295382 -0.2626612796
-0.2502747433 -0.3106440115
-0.0795199084 -0.1752698546
-0.0506423617 -0.2717301175
0.1093385482 -0.3700003194
0.0330217754 -0.3792209340
-0.1816540026 -0.6006191400
0.0238068897 -0.4542911907
0.0106053778 -0.1679188712
0.2198557171 -0.1497365498
0.6789206943 -0.1044457897
0.1228795975 -0.1626900971
0.2459856556 -0.1811116730
0.1155163104 -0.1797845378
0.7939508263 -0.0378337762
1.0760369133 0.3832358385
0.5032881257 0.5212887142
0.1985459305 0.2297264127
0.1192047311 0.0749096329
0.6856096825 0.0089996514
0.4882502484 -0.1741932095
0.5322381352 -0.1741932095
0.4127426958 -0.1741932095
0.6398001465 -0.3986451271
0.8545754481 -0.4199982495
0.7246390264 -0.0524118355
0.9770161541 0.2918577098
0.9294334391 0.1838458445
