* par de mercados para drvec, generado por drvec_par.py
* mercado: /home/david/Dropbox/Cycles/Analysis/Nominales/Utrecht_Groningen/A.1700_1892/H.1.inp
* Londres: /home/david/Dropbox/Cycles/Analysis/Nominales/Inglaterra/Londres/A.1700_1792/E.L.1.inp
* muestra: 1700-1812 (solape de los dos ficheros de fue)
*
* Col 1 = Y2 = log Londres;  col 2 = Y1 = log mercado.
* W = log p_mercado + B2 * log p_Londres, luego la ley de un precio
* unico es B2 = -1 -- lo que el analisis de precios relativos impone.
1
2 113 1 1700
lLondon lMarket
1.0 0 0
-0.4719184897 -0.3678848552
-0.6442635920 -0.5388426611
-0.5878891844 -0.6429484660
-0.2741495778 -0.8571198481
-0.6466488798 -0.8610109036
-0.8204098977 -0.8571198481
-0.7877503311 -0.9635596948
-0.6320500803 -0.8866786505
-0.0458750193 -0.5718679106
0.3170664360 -0.2312333369
-0.1183300985 -0.0237886952
-0.2156208956 -0.3560503993
-0.3617988680 -0.5151150939
-0.0349751684 -0.6090469137
-0.4870187340 -0.3443543596
-0.1504087469 -0.5573749032
-0.2851214746 -0.6715672708
-0.3703434943 -0.6747982914
-0.7040734988 -0.6090469137
-0.4729744560 -0.7556503879
-0.4729744560 -0.8378884863
-0.6737860313 -0.9109713429
-0.5652148674 -0.9421913604
-0.5927007414 -0.8474579372
-0.3368710963 -0.6829218129
-0.2851214746 -0.6197096196
-0.5384643012 -0.6045117586
-0.1319844797 -0.6320364320
-0.1353708696 -0.7245598010
-0.5160440881 -0.7823186351
-0.6301937589 -0.7913684706
-0.8004225566 -0.6587465822
-0.7916659332 -0.8866786505
-0.7185548459 -0.8668760230
-0.4873402257 -0.8041774288
-0.4222994192 -0.7469167080
-0.6320500803 -0.8134281886
-0.6687618661 -0.6993695520
-0.6474033120 -0.8134281886
-0.3302540334 -0.5865740579
-0.0085330183 -0.2056040511
-0.6421341993 0.0649792253
-0.8838424059 -0.5360217788
-1.0264286004 -0.6166515132
-1.0040782560 -0.8134281886
-0.6580255667 -0.8787104806
-0.5912726799 -0.6635350992
-0.6294521942 -0.4640287175
-0.5718408725 -0.4812135422
-0.6368927048 -0.4973429242
-0.6063700191 -0.5502064137
-0.3712019862 -0.8378884863
-0.3809834221 -0.5865740579
-0.4222994192 -0.6603402081
-0.6687618661 -0.5502064137
-0.5101054365 -0.8708053011
-0.0141263209 -0.5674979108
-0.1840253577 -0.3560503993
-0.4828487200 -0.3362477721
-0.5572522151 -0.7043570935
-0.5714910387 -0.5502064137
-0.5714910387 -0.4812135422
-0.5055107451 -0.5617007931
-0.2888056893 -0.5865740579
-0.2579141998 -0.1286804975
-0.2777935172 -0.3859033625
0.0189736275 -0.4614109150
0.0162567619 -0.3455178268
-0.2178286727 -0.2988919855
-0.3691999835 -0.2714930113
-0.1547800871 -0.4812135422
-0.0167338843 -0.3668712614
0.0816936356 -0.1418882367
-0.0252050927 -0.0581268328
0.1068567175 -0.2239906773
-0.3036798015 -0.0677802645
-0.2161110916 -0.5014162496
-0.0842358871 -0.4279887810
-0.3801164952 -0.4640287175
-0.3882371896 -0.4838837707
-0.0169347480 -0.4679683155
-0.0518897631 -0.4679683155
0.0214898390 -0.4042525011
-0.0411302966 -0.3213648413
-0.1301830830 -0.2469322466
-0.2467295382 -0.2823626835
-0.2502747433 -0.2554068735
-0.0795199084 -0.2395754084
-0.0506423617 -0.2607402195
0.1093385482 -0.2209026666
0.0330217754 -0.1835811390
-0.1816540026 -0.2988919855
0.0238068897 -0.2933518051
0.0106053778 -0.1935314698
0.2198557171 -0.0468370907
0.6789206943 0.5095660416
0.1228795975 0.0878809896
0.2459856556 -0.2035818057
0.1155163104 -0.3560503993
0.7939508263 -0.0087130329
1.0760369133 0.3660843181
0.5032881257 0.4742979028
0.1985459305 0.2448190360
0.1192047311 0.1375293259
0.6856096825 0.1429407668
0.4882502484 0.4216541693
0.5322381352 0.4151465541
0.4127426958 0.2284629402
0.6398001465 0.1606403439
0.8545754481 0.0878809896
0.7246390264 0.0878809896
0.9770161541 0.1849049659
0.9294334391 0.4340099536
