* par de mercados para drvec, generado por drvec_par.py
* mercado: /home/david/Dropbox/Cycles/Analysis/Nominales/Viena/A.1700_1813/V.1.inp
* Londres: /home/david/Dropbox/Cycles/Analysis/Nominales/Inglaterra/Londres/A.1700_1792/E.L.1.inp
* muestra: 1700-1812 (solape de los dos ficheros de fue)
*
* Col 1 = Y2 = log Londres;  col 2 = Y1 = log mercado.
* W = log p_mercado + B2 * log p_Londres, luego la ley de un precio
* unico es B2 = -1 -- lo que el analisis de precios relativos impone.
1
2 113 1 1700
lLondon lMarket
1.0 0 0
-0.4719184897 -1.0365049217
-0.6442635920 -1.0579273573
-0.5878891844 -1.5566869616
-0.2741495778 -1.4362063249
-0.6466488798 -1.3044725239
-0.8204098977 -1.4938719669
-0.7877503311 -1.3681717670
-0.6320500803 -1.2363196359
-0.0458750193 -1.4064801449
0.3170664360 -1.0061420578
-0.1183300985 -1.3995308466
-0.2156208956 -1.4594631872
-0.3617988680 -1.0618721354
-0.0349751684 -1.0748012066
-0.4870187340 -1.0259633770
-0.1504087469 -1.2820556450
-0.2851214746 -1.1780507277
-0.3703434943 -1.1615396208
-0.7040734988 -0.9133839851
-0.4729744560 -0.8790566297
-0.4729744560 -1.0539980791
-0.6737860313 -1.4923510542
-0.5652148674 -1.7373890846
-0.5927007414 -1.7200643013
-0.3368710963 -1.5963615865
-0.2851214746 -1.4923510542
-0.5384643012 -0.9757669662
-0.1319844797 -1.2130627735
-0.1353708696 -1.3377662522
-0.5160440881 -1.4261990935
-0.6301937589 -1.3898822535
-0.8004225566 -1.2759168907
-0.7916659332 -1.3722067420
-0.7185548459 -1.4683258745
-0.4873402257 -1.6116550024
-0.4222994192 -1.5123056686
-0.6320500803 -1.2084756098
-0.6687618661 -1.3442979542
-0.6474033120 -1.2613358300
-0.3302540334 -1.0858732875
-0.0085330183 -0.9253807012
-0.6421341993 -1.0413335163
-0.8838424059 -1.0728012060
-1.0264286004 -1.0878996308
-1.0040782560 -1.1346128456
-0.6580255667 -0.8856627643
-0.5912726799 -0.9857898292
-0.6294521942 -1.1506817507
-0.5718408725 -0.9471680554
-0.6368927048 -1.3403380344
-0.6063700191 -1.5558732562
-0.3712019862 -1.5988906415
-0.3809834221 -1.2621941645
-0.4222994192 -1.0598941408
-0.6687618661 -0.9883404483
-0.5101054365 -0.9010449401
-0.0141263209 -0.9639181821
-0.1840253577 -0.5797543277
-0.4828487200 -0.5129167518
-0.5572522151 -0.9832383967
-0.5714910387 -1.0029392480
-0.5714910387 -1.0212723671
-0.5055107451 -1.0644834101
-0.2888056893 -1.1300651001
-0.2579141998 -1.2140448205
-0.2777935172 -0.9531609413
0.0189736275 -0.6898474598
0.0162567619 -0.7377840985
-0.2178286727 -0.9211522861
-0.3691999835 -1.0215710341
-0.1547800871 -0.6125909838
-0.0167338843 -0.4123988717
0.0816936356 -0.3109714034
-0.0252050927 -0.8126121176
0.1068567175 -0.7205539733
-0.3036798015 -1.0154279693
-0.2161110916 -1.1050674688
-0.0842358871 -1.0693493862
-0.3801164952 -0.9179726332
-0.3882371896 -0.9307523600
-0.0169347480 -0.6691303941
-0.0518897631 -0.8386627949
0.0214898390 -0.9576378898
-0.0411302966 -1.1381444142
-0.1301830830 -0.9227459120
-0.2467295382 -0.9251411228
-0.2502747433 -0.8291771345
-0.0795199084 -0.4114419338
-0.0506423617 -0.2464869495
0.1093385482 -0.2028465460
0.0330217754 -0.3053643153
-0.1816540026 -0.6666582050
0.0238068897 -0.8691824692
0.0106053778 -1.0339715473
0.2198557171 -0.5969248671
0.6789206943 -0.4833083704
0.1228795975 -0.7788042645
0.2459856556 -0.6504464135
0.1155163104 -0.7991899885
0.7939508263 -0.6944122406
1.0760369133 -0.3264151932
0.5032881257 -0.2603772886
0.1985459305 -0.0581728737
0.1192047311 -0.0717339069
0.6856096825 0.0288241414
0.4882502484 0.1687109914
0.5322381352 -0.3360149038
0.4127426958 -0.5303754830
0.6398001465 0.0530383944
0.8545754481 -0.0373923810
0.7246390264 -0.3815923199
0.9770161541 -0.2304659042
0.9294334391 -0.7029997533
