* par de mercados para drvec, generado por drvec_par.py
* mercado: /home/david/Dropbox/Cycles/Analysis/Nominales/Francia/Aix/A.1700_1789/F.A.1.inp
* Londres: /home/david/Dropbox/Cycles/Analysis/Nominales/Inglaterra/Londres/A.1700_1792/E.L.1.inp
* muestra: 1700-1789 (solape de los dos ficheros de fue)
*
* Col 1 = Y2 = log Londres;  col 2 = Y1 = log mercado.
* W = log p_mercado + B2 * log p_Londres, luego la ley de un precio
* unico es B2 = -1 -- lo que el analisis de precios relativos impone.
1
2 90 1 1700
lLondon lMarket
1.0 0 0
-0.4719184897 -0.0945772161
-0.6442635920 -0.2757840554
-0.5878891844 -0.1229967867
-0.2741495778 -0.1701521521
-0.6466488798 -0.2414520245
-0.8204098977 -0.2613921801
-0.7877503311 -0.2181713694
-0.6320500803 -0.1810852657
-0.0458750193 -0.0542806236
0.3170664360 0.4825681490
-0.1183300985 -0.1499111113
-0.2156208956 -0.1116898985
-0.3617988680 0.1525955959
-0.0349751684 0.0171429730
-0.4870187340 -0.0826673673
-0.1504087469 -0.1980304259
-0.2851214746 -0.3417636589
-0.3703434943 -0.1163037618
-0.7040734988 -0.4784875078
-0.4729744560 -0.3562544309
-0.4729744560 -0.3555476524
-0.6737860313 -0.7371784317
-0.5652148674 -0.5866055719
-0.5927007414 -0.3698231613
-0.3368710963 -0.3143533621
-0.2851214746 -0.4410979878
-0.5384643012 -0.5644723326
-0.1319844797 -0.5384263330
-0.1353708696 -0.4375201666
-0.5160440881 -0.3237132806
-0.6301937589 -0.4669673682
-0.8004225566 -0.5020586876
-0.7916659332 -0.4110869099
-0.7185548459 -0.4555386730
-0.4873402257 -0.2694363925
-0.4222994192 -0.4738878109
-0.6320500803 -0.3895807044
-0.6687618661 -0.3377556366
-0.6474033120 -0.5359602400
-0.3302540334 -0.6021421473
-0.0085330183 -0.4242162012
-0.6421341993 -0.3853344140
-0.8838424059 -0.3039887750
-1.0264286004 -0.4198205902
-1.0040782560 -0.3895807044
-0.6580255667 -0.4555386730
-0.5912726799 -0.2323951217
-0.6294521942 0.0087669359
-0.5718408725 0.0910050332
-0.6368927048 -0.1621908621
-0.6063700191 -0.3685272964
-0.3712019862 -0.2233452854
-0.3809834221 -0.3377556366
-0.4222994192 -0.3079026738
-0.6687618661 -0.5020586876
-0.5101054365 -0.2770121867
-0.0141263209 -0.2884845877
-0.1840253577 -0.1621908621
-0.4828487200 -0.2037193216
-0.5572522151 -0.0202206014
-0.5714910387 -0.1453837448
-0.5714910387 -0.3561047751
-0.5055107451 -0.4110869099
-0.2888056893 -0.2884845877
-0.2579141998 -0.1288544426
-0.2777935172 0.0507311345
0.0189736275 0.0229515701
0.0162567619 0.0087669359
-0.2178286727 0.0369378122
-0.3691999835 -0.0261203238
-0.1547800871 -0.1125939216
-0.0167338843 -0.1125939216
0.0816936356 -0.0808452229
-0.0252050927 0.1910884922
0.1068567175 -0.0202206014
-0.3036798015 -0.0202206014
-0.2161110916 -0.1879433592
-0.0842358871 -0.1879433592
-0.3801164952 0.1322479919
-0.3882371896 0.0229515701
-0.0169347480 -0.0027274441
-0.0518897631 0.0257645120
0.0214898390 0.0975624343
-0.0411302966 0.1730699869
-0.1301830830 0.1863152132
-0.2467295382 0.0229515701
-0.2502747433 0.0910050332
-0.0795199084 0.0507311345
-0.0506423617 0.0844043496
0.1093385482 0.2005672366
