* par de mercados para drvec, generado por drvec_par.py
* mercado: /home/david/Dropbox/Cycles/Analysis/Nominales/Francia/Angers/A.1700_1789/F.AN.1.inp
* Londres: /home/david/Dropbox/Cycles/Analysis/Nominales/Inglaterra/Londres/A.1700_1792/E.L.1.inp
* muestra: 1700-1789 (solape de los dos ficheros de fue)
*
* Col 1 = Y2 = log Londres;  col 2 = Y1 = log mercado.
* W = log p_mercado + B2 * log p_Londres, luego la ley de un precio
* unico es B2 = -1 -- lo que el analisis de precios relativos impone.
1
2 90 1 1700
lLondon lMarket
1.0 0 0
-0.4719184897 -0.6616485135
-0.6442635920 -0.7700282249
-0.5878891844 -0.8698843591
-0.2741495778 -0.6951491832
-0.6466488798 -1.0642108620
-0.8204098977 -1.2909841813
-0.7877503311 -1.2552660987
-0.6320500803 -1.1332037334
-0.0458750193 -0.0661398025
0.3170664360 0.2615947377
-0.1183300985 -0.4261781497
-0.2156208956 -0.8324092479
-0.3617988680 -0.7072461049
-0.0349751684 -0.2652684776
-0.4870187340 -0.7743572360
-0.1504087469 -1.1086626245
-0.2851214746 -1.3056364581
-0.3703434943 -1.3056364581
-0.7040734988 -1.2310014767
-0.4729744560 -0.7423374248
-0.4729744560 -1.5654210270
-0.6737860313 -1.5095925775
-0.5652148674 -1.2658482080
-0.5927007414 -0.9888614247
-0.3368710963 -0.2523149286
-0.2851214746 -0.4893903430
-0.5384643012 -0.7635696449
-0.1319844797 -0.9915532164
-0.1353708696 -0.9915532164
-0.5160440881 -0.8580218238
-0.6301937589 -0.8096809968
-0.8004225566 -0.9623346704
-0.7916659332 -0.9623346704
-0.7185548459 -0.8439700703
-0.4873402257 -0.8255363686
-0.4222994192 -0.8439700703
-0.6320500803 -0.6655320135
-0.6687618661 -0.4893903430
-0.6474033120 -0.3797973614
-0.3302540334 -0.6462635947
-0.0085330183 -0.5869869847
-0.6421341993 -0.5851900391
-0.8838424059 -1.0272222926
-1.0264286004 -1.3130438994
-1.0040782560 -1.4271163556
-0.6580255667 -1.2241755116
-0.5912726799 -0.8964881046
-0.6294521942 -0.6951491832
-0.5718408725 -0.9113031904
-0.6368927048 -0.9187938621
-0.6063700191 -0.8867319296
-0.3712019862 -0.2523149286
-0.3809834221 -0.5361434318
-0.4222994192 -0.9364934392
-0.6687618661 -1.0847093835
-0.5101054365 -1.0555527992
-0.0141263209 -0.7486598905
-0.1840253577 -1.2413285909
-0.4828487200 -0.7277386253
-0.5572522151 -0.8255363686
-0.5714910387 -0.9314043697
-0.5714910387 -0.9942522733
-0.5055107451 -0.9162907319
-0.2888056893 -0.9493305860
-0.2579141998 -0.8486320834
-0.2777935172 -0.4910229965
0.0189736275 -0.6500876911
0.0162567619 -0.5942072327
-0.2178286727 -0.3215836241
-0.3691999835 -0.2033409240
-0.1547800871 -0.4140014391
-0.0167338843 -0.2033409240
0.0816936356 -0.2107210313
-0.0252050927 -0.5327304592
0.1068567175 -0.3696154552
-0.3036798015 -0.5744756508
-0.2161110916 -0.5008752929
-0.0842358871 -0.5673959753
-0.3801164952 -0.7614260213
-0.3882371896 -0.8096809968
-0.0169347480 -0.5996568375
-0.0518897631 -0.7318880089
0.0214898390 -0.7277386253
-0.0411302966 -0.3285040670
-0.1301830830 -0.3581045367
-0.2467295382 -0.3812604194
-0.2502747433 -0.5225608800
-0.0795199084 -0.5923972775
-0.0506423617 -0.3065251603
0.1093385482 -0.2836900512
