* par de mercados para drvec, generado por drvec_par.py
* mercado: /home/david/Dropbox/Cycles/Analysis/Nominales/Penn/A.1720_1813/P.1.inp
* Londres: /home/david/Dropbox/Cycles/Analysis/Nominales/Inglaterra/Londres/A.1700_1792/E.L.1.inp
* muestra: 1720-1812 (solape de los dos ficheros de fue)
*
* Col 1 = Y2 = log Londres;  col 2 = Y1 = log mercado.
* W = log p_mercado + B2 * log p_Londres, luego la ley de un precio
* unico es B2 = -1 -- lo que el analisis de precios relativos impone.
1
2 93 1 1720
lLondon lMarket
1.0 0 0
-0.4729744560 -1.0622643460
-0.6737860313 -1.0948758154
-0.5652148674 -1.0784491252
-0.5927007414 -1.2878402033
-0.3368710963 -0.9471593956
-0.2851214746 -0.8803133869
-0.5384643012 -0.9248342929
-0.1319844797 -1.0912429673
-0.1353708696 -1.0699663598
-0.5160440881 -0.9987778535
-0.6301937589 -1.0186852973
-0.8004225566 -1.4138664887
-0.7916659332 -1.3623227397
-0.7185548459 -1.2664399856
-0.4873402257 -1.0796466854
-0.4222994192 -0.9978992235
-0.6320500803 -1.1922255872
-0.6687618661 -1.0360110970
-0.6474033120 -1.0683522326
-0.3302540334 -1.3962691115
-0.0085330183 -1.2106093093
-0.6421341993 -0.8030181825
-0.8838424059 -1.0383188030
-1.0264286004 -1.2772733799
-1.0040782560 -1.4451892794
-0.6580255667 -1.4447950214
-0.5912726799 -1.4078585111
-0.6294521942 -1.3174842345
-0.5718408725 -0.8120527335
-0.6368927048 -0.6969983584
-0.6063700191 -0.9182379019
-0.3712019862 -0.9767154081
-0.3809834221 -0.9406560956
-0.4222994192 -0.9413810263
-0.6687618661 -0.9332773640
-0.5101054365 -0.9079250066
-0.0141263209 -0.9580726417
-0.1840253577 -1.0569909455
-0.4828487200 -1.0100761996
-0.5572522151 -0.7614611868
-0.5714910387 -0.7617655222
-0.5714910387 -0.8843906360
-0.5055107451 -0.7401396733
-0.2888056893 -0.6544945774
-0.2579141998 -0.8917110564
-0.2777935172 -0.8798309702
0.0189736275 -0.6671745103
0.0162567619 -0.5953129265
-0.2178286727 -0.5773087624
-0.3691999835 -0.6871571487
-0.1547800871 -0.5526582003
-0.0167338843 -0.4769382414
0.0816936356 -0.3088288462
-0.0252050927 -0.3768132972
0.1068567175 -0.4631919492
-0.3036798015 -0.6393280992
-0.2161110916 -0.9455159958
-0.0842358871 -1.0306715083
-0.3801164952 -0.6583790333
-0.3882371896 0.0435728680
-0.0169347480 0.0989002156
-0.0518897631 -0.4604871320
0.0214898390 -0.4713091081
-0.0411302966 -0.4965103181
-0.1301830830 -0.3819400103
-0.2467295382 -0.3495726872
-0.2502747433 -0.4258444850
-0.0795199084 -0.5253275176
-0.0506423617 -0.6261980901
0.1093385482 -0.4860218427
0.0330217754 -0.0550773527
-0.1816540026 -0.3302136802
0.0238068897 -0.3721785245
0.0106053778 -0.2169351755
0.2198557171 -0.1527156734
0.6789206943 0.2717656883
0.1228795975 0.3357809926
0.2459856556 -0.0730620278
0.1155163104 -0.0346876091
0.7939508263 0.0940143642
1.0760369133 0.2398677510
0.5032881257 0.2552992172
0.1985459305 -0.1908578407
0.1192047311 -0.2311491990
0.6856096825 -0.1230076151
0.4882502484 0.3381953626
0.5322381352 -0.0265687429
0.4127426958 -0.0885818398
0.6398001465 -0.3826420177
0.8545754481 -0.0973992230
0.7246390264 0.7897770364
0.9770161541 0.2651912562
0.9294334391 0.2669346255
