* par de mercados para drvec, generado por drvec_par.py
* mercado: /home/david/Dropbox/Cycles/Analysis/Nominales/Francia/Strasbourg/A.1700_1813/F.1.inp
* Londres: /home/david/Dropbox/Cycles/Analysis/Nominales/Inglaterra/Londres/A.1700_1792/E.L.1.inp
* muestra: 1700-1812 (solape de los dos ficheros de fue)
*
* Col 1 = Y2 = log Londres;  col 2 = Y1 = log mercado.
* W = log p_mercado + B2 * log p_Londres, luego la ley de un precio
* unico es B2 = -1 -- lo que el analisis de precios relativos impone.
1
2 113 1 1700
lLondon lMarket
1.0 0 0
-0.4719184897 -0.5673959753
-0.6442635920 -0.7206211576
-0.5878891844 -0.4262547223
-0.2741495778 -0.3050317108
-0.6466488798 -0.3557468034
-0.8204098977 -0.4098497064
-0.7877503311 -0.5579172313
-0.6320500803 -0.7573657529
-0.0458750193 -0.6587457538
0.3170664360 -0.2073932412
-0.1183300985 -0.5036017787
-0.2156208956 -0.7670090292
-0.3617988680 -0.5850105220
-0.0349751684 -0.2168508917
-0.4870187340 -0.2112767412
-0.1504087469 -0.8710783891
-0.2851214746 -1.1270117632
-0.3703434943 -1.2765434972
-0.7040734988 -1.2781577025
-0.4729744560 -1.2004789151
-0.4729744560 -0.6170198202
-0.6737860313 -1.2928040180
-0.5652148674 -1.4797263059
-0.5927007414 -1.3676688970
-0.3368710963 -0.9788312503
-0.2851214746 -0.7836190837
-0.5384643012 -1.0055318657
-0.1319844797 -0.9105572000
-0.1353708696 -1.1242378363
-0.5160440881 -1.1480651724
-0.6301937589 -1.1724741373
-0.8004225566 -0.9105572000
-0.7916659332 -0.9105572000
-0.7185548459 -0.9297559828
-0.4873402257 -0.7178497932
-0.4222994192 -0.6869663215
-0.6320500803 -0.9896682017
-0.6687618661 -0.9692960172
-0.6474033120 -0.8362095634
-0.3302540334 -0.9493305860
-0.0085330183 -0.8005096989
-0.6421341993 -0.5850105220
-0.8838424059 -0.7022888385
-1.0264286004 -0.8005096989
-1.0040782560 -0.7670090292
-0.6580255667 -0.7506703668
-0.5912726799 -0.6128583493
-0.6294521942 -0.7345943705
-0.5718408725 -0.7670090292
-0.6368927048 -1.3060055299
-0.6063700191 -0.7345943705
-0.3712019862 -0.7506703668
-0.3809834221 -0.6869663215
-0.4222994192 -0.7670090292
-0.6687618661 -0.7670090292
-0.5101054365 -0.9297559828
-0.0141263209 -1.0768997218
-0.1840253577 -0.8906229851
-0.4828487200 -0.8721542364
-0.5572522151 -0.8362095634
-0.5714910387 -0.6128583493
-0.5714910387 -0.8362095634
-0.5055107451 -0.8187104035
-0.2888056893 -0.8906229851
-0.2579141998 -0.9896682017
-0.2777935172 -0.9692960172
0.0189736275 -0.8005096989
0.0162567619 -0.6415039474
-0.2178286727 -0.4917585610
-0.3691999835 -0.5850105220
-0.1547800871 -0.2263988440
-0.0167338843 -0.2761488366
0.0816936356 -0.5571313766
-0.0252050927 -0.4670480014
0.1068567175 -0.6570081339
-0.3036798015 -0.5850105220
-0.2161110916 -0.8005096989
-0.0842358871 -0.7206211576
-0.3801164952 -0.5438654778
-0.3882371896 -0.5043466577
-0.0169347480 -0.6718750453
-0.0518897631 -0.6415039474
0.0214898390 -0.6270785806
-0.0411302966 -0.5850105220
-0.1301830830 -0.4670480014
-0.2467295382 -0.5307732616
-0.2502747433 -0.7506703668
-0.0795199084 -0.5571313766
-0.0506423617 -0.3179351156
0.1093385482 -0.0993784440
0.0330217754 -0.1373673118
-0.1816540026 -0.5307732616
0.0238068897 -0.4071415125
0.0106053778 0.3345060192
0.2198557171 0.0452123428
0.6789206943 0.0452123428
0.1228795975 -0.3634837859
0.2459856556 -0.3285040670
0.1155163104 -0.5246710306
0.7939508263 -0.5058380823
1.0760369133 -0.4235017956
0.5032881257 -0.2202103573
0.1985459305 -0.0675831513
0.1192047311 -0.2678794452
0.6856096825 -0.3930425881
0.4882502484 -0.2354692010
0.5322381352 -0.2051808509
0.4127426958 -0.3056423978
0.6398001465 -0.3863980454
0.8545754481 -0.5361434318
0.7246390264 -0.3667252798
0.9770161541 0.0097522914
0.9294334391 0.2585879122
