* Bivariate WTI IPC_FR (to 12/2019)
** Frequency (1=A, 4=Q, 12=M):
 12
** Series, observations, start (subperiod year):
 2 216 1 2002
** Series names:
 WTI IPC_FR
** Box-Cox lambda, regular differences, annual differences:
 0.0 1 0
** Data:
19.6700 81.9400
20.7400 82.0400
24.4200 82.4000
26.2700 82.7100
27.0200 82.8100
25.5200 82.8000
26.9400 82.8000
28.3800 82.9900
29.6700 83.1400
28.8500 83.2700
26.2700 83.2700
29.4200 83.4100
32.9400 83.5700
35.8700 84.1500
33.5500 84.4900
28.2500 84.3700
28.1400 84.2700
30.7200 84.4300
30.7600 84.3400
31.5900 84.5400
28.2900 84.8600
30.3300 85.0400
31.0900 85.1400
32.1500 85.2300
34.2700 85.2300
34.7400 85.5900
36.7600 85.9300
36.6900 86.1500
40.2800 86.4700
38.0200 86.5000
40.6900 86.3600
44.9400 86.5500
45.9500 86.6300
53.1300 86.8500
48.4600 86.9000
43.3300 87.0000
46.8400 86.5200
47.9700 87.0500
54.3100 87.6000
53.0400 87.7700
49.8300 87.8300
56.2600 87.9300
58.7000 87.8000
64.9700 88.1400
65.5700 88.4800
62.3700 88.4600
58.3000 88.2800
59.4300 88.3900
65.5100 88.3000
61.6300 88.6400
62.9000 88.8900
69.6900 89.2700
70.9400 89.6500
70.9600 89.6500
74.4100 89.5000
73.0500 89.8000
63.8700 89.6000
58.8800 89.4000
59.3700 89.5000
62.0300 89.7100
54.5700 89.4000
59.2600 89.5700
60.5600 89.9500
63.9700 90.3900
63.4600 90.6100
67.4800 90.7200
74.1800 90.4900
72.3900 90.8600
79.9300 90.9600
86.2000 91.1900
94.6200 91.6900
91.7300 92.0300
92.9500 91.9200
95.3500 92.1200
105.5600 92.8100
112.5700 93.1200
125.3900 93.6200
133.9300 93.9600
133.4400 93.7600
116.6100 93.7300
103.9000 93.6700
76.6500 93.6200
57.4400 93.1800
41.0200 92.9500
41.7400 92.5700
39.1600 92.9200
47.9800 93.0900
49.7900 93.2400
59.1600 93.3800
69.6800 93.5000
64.0900 93.0800
71.0600 93.5600
69.4600 93.3300
75.8200 93.4200
78.0800 93.5500
74.3000 93.8000
78.2200 93.5900
76.4200 94.1100
81.2400 94.5700
84.4800 94.8100
73.8400 94.9200
75.3500 94.9100
76.3700 94.6400
76.8200 94.8600
75.3100 94.7900
81.9000 94.9100
84.1400 95.0200
89.0400 95.4500
89.4200 95.2200
89.5800 95.6700
102.9400 96.4500
110.0400 96.7800
101.3300 96.8300
96.2900 96.9100
97.1900 96.4800
86.3300 96.9800
85.6100 96.9100
86.4100 97.1400
97.2100 97.4100
98.5700 97.8000
100.2400 97.4600
102.2500 97.8600
106.1900 98.6700
103.3300 98.8000
94.7000 98.7500
82.4100 98.7800
87.9300 98.3500
94.1600 99.0000
94.7200 98.7600
89.5700 98.9400
86.6600 98.7900
88.2500 99.1000
94.6900 98.6000
95.3200 98.8800
93.0500 99.6300
92.0700 99.4800
94.8000 99.5400
95.8000 99.7000
104.6100 99.4000
106.5700 99.8600
106.2900 99.6300
100.5400 99.5000
93.8600 99.4600
97.6300 99.8000
94.6200 99.2400
100.8200 99.7900
100.8000 100.2400
102.0700 100.2000
102.1800 100.2200
105.7900 100.1800
103.5900 99.8600
96.5400 100.3000
93.2100 99.9200
84.4000 99.9500
75.7900 99.7800
59.2900 99.8600
47.2200 98.8600
50.5800 99.5200
47.8200 100.1700
54.4500 100.2800
59.2700 100.5200
59.8200 100.4400
50.9000 100.0300
42.8700 100.3500
45.4800 99.9500
46.2200 100.0100
42.4400 99.8200
37.1900 100.0400
31.6800 99.0800
30.3200 99.3300
37.5500 100.0200
40.7500 100.0900
46.7100 100.5000
48.7600 100.6300
44.6500 100.2500
44.7200 100.5800
45.1800 100.3400
49.7800 100.3700
45.6600 100.3500
51.9700 100.6500
52.5000 100.4100
53.4700 100.5300
49.3300 101.1700
51.0600 101.2600
48.4800 101.3100
45.1800 101.3200
46.6300 100.9700
48.0400 101.4900
49.8200 101.3300
51.5800 101.4300
56.6400 101.5300
57.8800 101.8500
63.7000 101.7500
62.2300 101.7200
62.7300 102.7500
66.2500 102.9200
69.9800 103.3600
67.8700 103.3700
70.9800 103.2800
68.0600 103.7800
70.2300 103.5600
70.7500 103.6700
56.9600 103.4500
49.5200 103.4700
51.3800 103.0100
54.9500 103.0600
58.1500 103.8900
63.8600 104.2200
60.8300 104.3300
54.6600 104.5800
57.3500 104.3800
54.8100 104.8600
56.9500 104.5000
53.9600 104.4600
57.0300 104.5200
59.8800 104.9800
