* Arnhem-London wheat prices (1700-1812)
* log-levels, no differencing
1
2 112 1 1701
Arnhem London
1.0 0 0
-0.09875531 0.17450888
0.03044955 0.05492811
0.20471975 0.03956417
-0.23642021 0.29489690
-0.08354699 0.26585731
0.01461579 0.64663409
0.07663412 0.58864591
0.42366027 0.28636917
0.41793246 0.67783242
-0.48469105 0.62853791
-0.08236193 0.89478121
-0.10961839 0.26559258
0.26920697 0.20797584
-0.35117387 0.30884553
0.24590071 -0.04357955
-0.10843333 -0.14124680
-0.06142580 -0.15552727
-0.19593053 -0.16038412
0.12857941 -0.41705442
0.00000000 -0.84272222
-0.11337109 -0.77763866
0.05846314 -0.43688036
-0.01540583 0.37957249
0.16116866 0.12733391
0.03792204 -0.09997977
-0.16827904 -0.07463523
0.29271073 -0.32715461
-0.00296266 -0.21748140
-0.27651486 0.32408973
-0.06438846 0.37385094
-0.08334948 0.30031976
0.00395021 -0.08195895
0.03436685 0.24756942
0.12680181 0.68849975
0.04127972 0.66473866
-0.12403667 -0.03308825
-0.01915853 0.73076404
0.01106059 0.69732636
0.19533800 0.20755218
0.27276216 0.19008398
-0.46533501 0.45366035
-0.11297607 0.64194701
-0.05490795 0.31986828
0.00809794 -0.12169909
0.15149064 -0.14487953
0.03574942 0.04726054
-0.02073861 -0.04065908
0.03160170 0.32637390
-0.03555191 0.57901737
0.01639338 0.56488807
0.14457777 0.25115425
-0.00671536 0.32654100
-0.02765149 0.60435707
-0.14319520 0.70762431
0.08808973 0.63705763
0.38554072 -0.45421003
-0.15405828 -0.30483786
-0.21489155 -0.40322762
-0.04424238 -0.13012032
-0.00809794 0.10307801
0.00000000 0.66269381
0.03851457 0.63522808
0.14596034 0.56448337
0.02350376 0.55709564
-0.01520832 0.56176665
0.26170156 0.50211559
-0.00276515 0.57883854
-0.21212640 0.84074824
-0.11297607 0.81670054
0.16531638 1.01790170
0.12680181 0.13889363
0.10171797 0.27882346
-0.11001341 0.81527407
0.13766490 0.47912787
-0.37467764 0.39720372
0.06754863 0.45722635
0.11356860 0.37949632
-0.23543265 0.46014699
-0.00553030 0.66158823
0.30495639 0.78843341
-0.03377432 0.51090071
0.07228888 0.19803037
-0.06201833 0.22272974
-0.08176939 0.25354361
-0.09658269 0.50129131
-0.00276515 0.66550698
0.14497279 0.90515319
0.02705895 0.90333460
0.16492136 0.85948488
-0.08196691 0.80254146
-0.19968323 0.43804438
0.19020272 0.30018388
-0.01343072 0.80204662
0.23523514 0.92811489
0.72585151 1.43222960
-0.84100020 0.82293094
0.14813296 1.04168596
-0.15642841 1.39025983
1.08966606 1.18942769
0.72091374 1.57674780
-1.27888123 1.33614471
-0.43452335 1.37514088
-0.09302750 1.36145458
0.85838113 2.06894621
-0.35551911 1.53972285
0.07327644 0.82411316
-0.19178281 0.55845440
0.38514570 0.59875960
0.45427441 0.60464386
-0.28639039 0.54827336
0.59253184 1.79514935
-0.12344413 2.33239241
