* VEC sim stationary (no MA)
12
2 113 1 1966
starts sold
1.0 0 0
0.000000 93.000000
5.205332 96.487910
-3.093082 92.749352
2.323340 99.581899
0.620305 96.386383
-3.944281 91.483769
-6.813342 91.353243
-0.165825 85.647659
1.256007 81.617921
-6.093944 75.606220
1.559773 84.506354
-1.263088 88.276961
4.952930 91.200306
2.988909 88.341310
-1.463987 85.078718
4.827185 81.594545
-7.785243 76.292882
-4.289520 79.165000
-3.294990 83.072592
5.309572 82.717429
3.570510 89.399143
1.363446 91.497534
-1.320928 86.081579
3.960086 84.963481
-6.787602 84.782896
1.715215 89.474857
4.324489 89.376901
4.026858 95.219782
-2.035957 90.332406
2.549328 91.308065
-3.031482 86.412946
-6.408368 78.437838
4.469603 82.373895
1.050041 79.795618
-5.117016 77.740055
4.093957 78.668032
1.465202 74.782192
-5.493030 54.337075
-9.948064 44.377248
-12.057792 37.860235
0.309458 36.030297
-1.602523 42.379819
-0.409888 40.148853
3.187252 46.613919
2.591099 45.511258
2.476928 45.415381
-3.829692 39.134867
-6.680536 34.860544
2.024689 37.553033
-0.119483 38.249031
-1.679423 31.662780
-3.049005 29.467951
1.982770 29.640675
1.959795 39.433278
1.846456 42.914365
-0.012977 34.694274
6.482182 33.853049
-4.801262 26.492345
-8.549859 20.608466
1.855872 25.073348
-3.138229 28.048962
-0.974439 37.844106
13.189830 47.888332
-1.679236 43.642492
-0.869978 44.818508
0.304920 38.224977
-0.523524 31.397070
0.813858 22.996932
-8.188439 11.364531
-8.193762 9.770241
3.710379 10.478378
-3.554165 -1.172223
-1.779065 -4.782692
-9.629316 -16.574419
-0.965280 -16.446702
-0.394692 -17.011526
-1.544598 -22.519618
-4.424893 -23.841477
3.045043 -13.930701
2.245413 -18.783994
-0.319293 -26.082647
-5.545384 -24.575157
2.139663 -19.390196
6.916292 -14.484168
-4.872493 -18.509836
-3.895184 -23.989362
0.974435 -24.387706
1.998370 -23.765137
2.563898 -25.800335
3.753594 -32.052391
-10.865475 -38.803400
-3.680551 -49.307154
-3.474121 -56.710532
-5.535288 -60.738667
-8.926360 -69.368389
1.403989 -72.653220
-6.400893 -74.739066
1.928577 -73.117308
-0.440827 -77.974034
-4.898798 -79.372294
3.229363 -76.071871
4.445930 -69.948258
-4.610320 -77.934359
1.741272 -75.492296
11.555740 -73.368846
-3.385714 -78.692765
-4.152887 -81.564162
-3.307638 -89.329603
-7.307268 -100.204352
-5.126121 -108.444366
-7.965321 -101.087970
-0.947611 -93.632011
9.370386 -88.725701
