* Pennsylvania-London wheat prices (1720-1812)
* log-levels, no differencing
1
2 92 1 1721
Pennsylvania London
1.0 0 0
-0.11337109 0.08868512
0.05846314 0.05500378
-0.01540583 -0.14230725
0.16116866 0.10371257
0.03792204 0.15673100
-0.16827904 0.19727388
0.29271073 -0.08290389
-0.00296266 -0.06120355
-0.27651486 0.11414331
-0.06438846 0.14399708
-0.08334948 -0.16430479
0.00395021 -0.11756746
0.03436685 -0.06042894
0.12680181 0.02195155
0.04127972 0.07993793
-0.12403667 -0.02867445
-0.01915853 0.14509330
0.01106059 0.10245421
0.19533800 -0.34727395
0.27276216 -0.21057301
-0.46533501 0.36528430
-0.11297607 0.25871581
-0.05490795 0.10743947
0.00809794 -0.07472883
0.15149064 -0.26889662
0.03574942 -0.26296358
-0.02073861 -0.15514840
0.03160170 0.32427348
-0.03555191 0.46882778
0.01639338 0.23345893
0.14457777 0.08439116
-0.00671536 0.12351655
-0.02765149 0.13645612
-0.14319520 0.24782703
0.08808973 0.20261270
0.38554072 0.04202667
-0.15405828 -0.04105088
-0.21489155 0.08979568
-0.04424238 0.36857181
-0.00809794 0.37440837
0.00000000 0.25178325
0.03851457 0.36856849
0.14596034 0.38346887
0.02350376 0.13886466
-0.01520832 0.15541576
0.26170156 0.33300663
-0.00276515 0.40481993
-0.21212640 0.44478313
-0.11297607 0.37332998
0.16531638 0.45872542
0.12680181 0.52320099
0.10171797 0.69460084
-0.11001341 0.62350170
0.13766490 0.54272613
-0.37467764 0.40244887
0.06754863 0.07624090
0.11356860 -0.02722122
-0.23543265 0.40551921
-0.00553030 1.11006151
0.30495639 1.09904280
-0.03377432 0.54083615
0.07228888 0.52892346
-0.06201833 0.50432406
-0.08176939 0.62617775
-0.09658269 0.67850884
-0.00276515 0.60301710
0.14497279 0.47775202
0.02705895 0.37506286
0.16492136 0.52017956
-0.08196691 0.94547392
-0.19968323 0.68533013
0.19020272 0.62810713
-0.01343072 0.78312126
0.23523514 0.87332557
0.72585151 1.56459345
-0.84100020 1.34364967
0.14813296 0.95983355
-0.15642841 0.97224890
1.08966606 1.51218242
0.72091374 2.09686346
-1.27888123 1.40616249
-0.43452335 0.83022427
-0.09302750 0.77624661
0.85838113 1.17636438
-0.35551911 1.47940768
0.07327644 1.14393213
-0.19178281 1.00963166
0.38514570 0.87365974
0.45427441 1.39840164
-0.28639039 2.12912393
0.59253184 1.94469286
-0.12344413 1.87057482
