* Strasbourg-London wheat prices (1700-1812)
* log-levels, no differencing
1
2 112 1 1701
Strasbourg London
1.0 0 0
-0.09875531 0.44869148
0.03044955 0.71713306
0.20471975 0.72933623
-0.23642021 0.81470023
-0.08354699 0.85081135
0.01461579 0.68470005
0.07663412 0.40618539
0.42366027 0.34229060
0.41793246 0.84863411
-0.48469105 0.50313106
-0.08236193 0.25465269
-0.10961839 0.47321078
0.26920697 0.78375367
-0.35117387 0.89019751
0.24590071 0.13968660
-0.10843333 -0.08996738
-0.06142580 -0.21570289
-0.19593053 -0.07951762
0.12857941 -0.10435847
0.00000000 0.47910063
-0.11337109 -0.10924309
0.05846314 -0.34627340
-0.01540583 -0.22213595
0.16116866 0.07204072
0.03792204 0.25342530
-0.16827904 0.11657631
0.29271073 0.09778188
-0.00296266 -0.11547503
-0.27651486 -0.03514400
-0.06438846 -0.00979176
-0.08334948 0.33900450
0.00395021 0.33419808
0.03436685 0.27625506
0.12680181 0.38374844
0.04127972 0.39087083
-0.12403667 0.17388294
-0.01915853 0.21180838
0.01106059 0.33459688
0.19533800 0.09966458
0.27276216 0.19952660
-0.46533501 0.58329196
-0.11297607 0.59474578
-0.05490795 0.58420315
0.00809794 0.60345142
0.15149064 0.42522803
0.03574942 0.53203658
-0.02073861 0.42774146
0.03160170 0.36931718
-0.03555191 -0.14017940
0.01639338 0.41710246
0.14457777 0.31043620
-0.00671536 0.37720632
-0.02765149 0.31082812
-0.14319520 0.41409537
0.08808973 0.18078172
0.38554072 -0.07680041
-0.15405828 0.12531708
-0.21489155 0.22771764
-0.04424238 0.29382343
-0.00809794 0.52331554
0.00000000 0.29996433
0.03851457 0.28999776
0.14596034 0.14734046
0.02350376 0.04090752
-0.01520832 0.06595071
0.26170156 0.19967144
-0.00276515 0.35862891
-0.21212640 0.53033333
-0.11297607 0.47547661
0.16531638 0.78498477
0.12680181 0.72399040
0.10171797 0.44629831
-0.11001341 0.53326699
0.13766490 0.34890995
-0.37467764 0.45676645
0.06754863 0.22124719
0.11356860 0.28282913
-0.23543265 0.52003277
-0.00553030 0.56214198
0.30495639 0.32826754
-0.03377432 0.35981934
0.07228888 0.37315399
-0.06201833 0.41582385
-0.08176939 0.54106976
-0.09658269 0.49730827
-0.00276515 0.27819122
0.14497279 0.44594816
0.02705895 0.68332584
0.16492136 0.90682296
-0.08196691 0.86318396
-0.19968323 0.48477055
0.19020272 0.59314414
-0.01343072 1.33456245
0.23523514 1.07125359
0.72585151 1.33804011
-0.84100020 0.64438489
0.14813296 0.70439151
-0.15642841 0.48226548
1.08966606 0.91232997
0.72091374 1.43349391
-1.27888123 0.93065292
-0.43452335 0.95349896
-0.09302750 0.73951636
0.85838113 0.90632941
-0.35551911 0.90574312
0.07327644 0.96532002
-0.19178281 0.79257111
0.38514570 0.86990371
0.45427441 0.95965743
-0.28639039 0.97262161
0.59253184 1.68925390
-0.12344413 1.86222810
