* Arnhem-London wheat prices (annual, 100*log scale)
* M=2, r=1. Col 1: nabla London (dL), Col 2: Arnhem level (A)
* Data from Garcia-Hiernaux & Guerrero (2021)
1
2 67 1 1809
Arnhem London
1.0 0 0
12.089714 -71.693561
7.763802 -71.924929
-5.950868 -71.187187
-7.115183 -70.903959
10.164394 -71.404112
-7.162722 -72.644642
4.116564 -72.541448
-0.270319 -72.558855
-6.830066 -72.647267
14.405214 -73.766019
-2.585499 -73.285145
-7.570981 -72.403255
0.086611 -73.515129
-2.671950 -73.909779
15.308210 -72.154514
-14.311483 -72.761219
7.415508 -74.434340
17.860048 -73.739908
3.809865 -73.296753
-4.230307 -71.626393
19.717309 -70.054175
14.133382 -69.418823
17.999456 -66.020279
-34.867058 -64.001376
3.162291 -63.557850
-3.859463 -64.352064
26.029364 -63.584894
-26.178067 -62.383395
15.616240 -62.111536
-5.551641 -62.029095
10.673968 -61.511343
-5.027675 -61.178009
6.575732 -61.438013
-1.129594 -60.941429
11.529035 -59.417593
-9.386875 -58.461595
7.449476 -58.345245
-0.792040 -57.685713
13.218028 -56.766870
-12.860727 -56.662321
6.406714 -56.863823
-0.845412 -57.124287
18.327115 -55.672212
-25.938601 -55.139925
6.852541 -55.513017
-0.670574 -54.825758
18.685657 -53.181189
-28.079811 -51.365463
10.322859 -50.998132
-4.250629 -50.922962
13.123465 -50.284032
-13.179257 -49.804636
-3.721602 -50.386102
4.244890 -50.612207
13.759173 -50.913710
-24.178576 -51.378282
0.191583 -51.490866
-2.367968 -52.441310
20.367724 -53.176873
-23.031428 -53.717301
7.675532 -55.003842
1.969855 -55.268704
13.141970 -55.043798
-20.363687 -55.155799
5.575662 -56.408320
-0.542150 -56.689520
5.076327 -56.898615
