* Arnhem(Utrecht)-London wheat prices, pre-1810
* log-levels, no differencing needed
1
2 110 1 1701
Arnhem London
1.0 0 0
-0.09875531 0.58342300
0.03044955 0.52574000
0.20471975 0.42438300
-0.23642021 0.42273500
-0.08354699 0.42438300
0.01461579 0.38153200
0.07663412 0.41202200
0.42366027 0.56447000
0.41793246 0.79355400
-0.48469105 0.97649200
-0.08236193 0.70043700
-0.10961839 0.59743200
0.26920697 0.54386900
-0.35117387 0.70867800
0.24590071 0.57271100
-0.10843333 0.51090700
-0.06142580 0.50925900
-0.19593053 0.54386900
0.12857941 0.46970500
0.00000000 0.43262300
-0.11337109 0.40213300
0.05846314 0.38977300
-0.01540583 0.42850300
0.16116866 0.50513900
0.03792204 0.53810100
-0.16827904 0.54634100
0.29271073 0.53150800
-0.00296266 0.48453800
-0.27651486 0.45734400
-0.06438846 0.45322400
-0.08334948 0.51750000
0.00395021 0.41202200
0.03436685 0.42026200
0.12680181 0.44745600
0.04127972 0.47382500
-0.12403667 0.44333600
-0.01915853 0.49689800
0.01106059 0.44333600
0.19533800 0.55623000
0.27276216 0.81415500
-0.46533501 1.06713700
-0.11297607 0.58507100
-0.05490795 0.53974900
0.00809794 0.44333600
0.15149064 0.41531800
0.03574942 0.51502700
-0.02073861 0.62874500
0.03160170 0.61803300
-0.03555191 0.60814400
0.01639338 0.57683100
0.14457777 0.43262300
-0.00671536 0.55623000
-0.02765149 0.51667600
-0.14319520 0.57683100
0.08808973 0.41861400
0.38554072 0.56694200
-0.15405828 0.70043700
-0.21489155 0.71444600
-0.04424238 0.49442600
-0.00809794 0.57683100
0.00000000 0.61803300
0.03851457 0.57023800
0.14596034 0.55623000
0.02350376 0.87925500
-0.01520832 0.67983600
0.26170156 0.63039400
-0.00276515 0.70785400
-0.21212640 0.74164000
-0.11297607 0.76224100
0.16531638 0.61803300
0.12680181 0.74287600
0.10171797 0.86771800
-0.11001341 0.94353000
0.13766490 0.79932300
-0.37467764 0.93446600
0.06754863 0.60567200
0.11356860 0.65181900
-0.23543265 0.62874500
-0.00553030 0.61638500
0.30495639 0.62627300
-0.03377432 0.62627300
0.07228888 0.66747600
-0.06201833 0.72515900
-0.08176939 0.78119400
-0.09658269 0.75400000
-0.00276515 0.77460100
0.14497279 0.78696200
0.02705895 0.77048100
0.16492136 0.80179500
-0.08196691 0.83228400
-0.19968323 0.74164000
0.19020272 0.74576000
-0.01343072 0.82404400
0.23523514 0.95424300
0.72585151 1.66456900
-0.84100020 1.09185800
0.14813296 0.81580300
-0.15642841 0.70043700
1.08966606 0.99132500
0.72091374 1.44207700
-1.27888123 1.60688600
-0.43452335 1.38027400
-0.09302750 1.38027400
0.85838113 1.15366100
-0.35551911 1.52448100
0.07327644 1.51459300
-0.19178281 1.25666700
0.38514570 1.17426300
0.45427441 1.09185800
-0.28639039 1.09185800
