* VEC sim (no MA) Mauricio Table A3
12
2 113 1 1966
starts sold
1.0 0 0
0.000000 93.125000
-4.189732 94.660731
3.297741 96.368584
-4.363740 85.745077
-1.511317 93.865791
-2.444459 97.108545
-2.627610 116.176116
-6.654752 137.178788
0.319175 189.899058
-11.965601 263.155222
-19.321924 384.559980
-39.097909 578.586331
-73.788412 909.406501
-124.675836 1495.023534
-212.822964 2499.490889
-370.706988 4230.512448
-628.778603 7210.288717
-1074.740601 12359.432450
-1849.013019 21215.563517
-3185.688052 36451.793210
-5488.500765 62677.551127
-9435.825908 107825.762192
-16242.187334 185537.149164
-27952.687636 319302.995474
-48111.045971 549524.343084
-82824.556908 945756.159463
-142549.084945 1627765.146630
-245349.797842 2801615.537823
-422290.210574 4822026.351490
-726843.123069 8299515.906519
-1251035.311659 14284887.173063
-2153264.048984 24586801.214542
-3706148.496205 42318271.643687
-6378960.701536 72837333.314917
-10979347.265209 125366163.856158
-18897446.915037 215777813.072300
-32525930.611902 371392653.653444
-55983018.621448 639233982.357269
-96356922.830827 1100237466.124199
-165847733.097222 1893708017.428157
-285454000.193127 3259414670.513484
-491318068.345067 5610043356.336449
-845647457.875001 9655901359.528019
-1455512547.384792 16619556296.310120
-2505200895.922407 28605268625.312332
-4311904817.419808 49234851943.914032
-7421569716.608488 84742103943.163055
-12773866644.801651 145856520316.719482
-21986139768.170067 251045507877.248260
-37842131521.040932 432094820987.078857
-65133167238.380348 743713504038.813965
-112105986187.777374 1280065738461.873779
-192954721452.402710 2203225147733.459961
-332110048668.307190 3792149813733.851562
-571621588700.778076 6526977156522.560547
-983864360557.405151 11234110700916.898438
-1693408889938.615234 19335940698770.132812
-2914663629944.422363 33280658581772.257812
-5016664389923.188477 57282045538519.320312
-8634588685477.947266 98592782742488.859375
-14861692146903.847656 169696049041628.218750
-25579665866517.691406 292077657809468.125000
-44027241270718.015625 502718588165515.375000
-75778862164385.968750 865269807976892.750000
-130429156703680.765625 1489286169680859.000000
-224492218971689.906250 2563331431138936.500000
-386391798064959.625000 4411957996811934.000000
-665050317983192.875000 7593779379900200.000000
-1144672137619208.000000 13070270685320780.000000
-1970188220667606.500000 22496304835998712.000000
-3391051024383949.000000 38720218078005232.000000
-5836613440962943.000000 66644513351773584.000000
-10045869618083402.000000 114707286796447264.000000
-17290762426589808.000000 197432031272417536.000000
-29760536086850888.000000 339816310375498624.000000
-51223276702636120.000000 584885461862488576.000000
-88164543424139120.000000 1006693890355305344.000000
-151747159056439040.000000 1732702648569107456.000000
-261184364908710592.000000 2982295310542487040.000000
-449545631674030656.000000 5133070770468656128.000000
-773749512256747776.000000 8834945165053704192.000000
-1331763152692959232.000000 15206541962868590592.000000
-2292205767856008448.000000 26173214903827611648.000000
-3945301588775613952.000000 45048846744688640000.000000
-6790579120195798016.000000 77537230351081619456.000000
-11687817458322503680.000000 133455627057212604416.000000
-20116852262687350784.000000 229701322997867020288.000000
-34624748923557539840.000000 395357610244122476544.000000
-59595468633184919552.000000 680482105796991516672.000000
-102574603196401008640.000000 1171233041458298093568.000000
-176549483747835478016.000000 2015904350338495283200.000000
-303873661123954147328.000000 3469736769596049326080.000000
-523021647895403757568.000000 5972045870264289853440.000000
-900215053701671026688.000000 10278973376038826934272.000000
-1549433271399059030016.000000 17691976244087228465152.000000
-2666855494858221551616.000000 30451097786768364142592.000000
-4590141674209442529280.000000 52411858552502205022208.000000
-7900465784492901007360.000000 90210308218218931552256.000000
-13598133574535722565632.000000 155268291061919315394560.000000
-23404852543486360027136.000000 267244871295318133571584.000000
-40283993356863530860544.000000 459976861632164731551744.000000
-69336054040958070685696.000000 791703549675126283829248.000000
-119339916164283756445696.000000 1362665305259271027425280.000000
-205405626078537122316288.000000 2345393973437783758340096.000000
-353540312250889113960448.000000 4036848130944111212494848.000000
-608506956565375587713024.000000 6948147312078549065662464.000000
-1047350764134888892268544.000000 11959020875787498717970432.000000
-1802680497402143538413568.000000 20583642499764020825817088.000000
-3102739871869243200897024.000000 35428179527296960648183808.000000
-5340377691088744366473216.000000 60978318324017400175919104.000000
-9191757949820238611611648.000000 104954738155830168411701248.000000
-15820681437769037124730880.000000 180646127412474481314103296.000000
-27230260252911107724804096.000000 310924727387462121493102592.000000
