* VEC sim Mauricio Table A3
12
2 113 1 1966
starts sold
1.0 0 0
0.000000 93.125000
5.093575 94.052169
-5.922084 84.963696
5.734673 91.318539
-2.158838 74.861950
-0.608705 62.656377
0.414967 48.499961
8.030533 12.244451
14.735158 -36.483556
14.162753 -127.893712
38.672451 -268.111825
49.829829 -538.460941
98.871466 -993.361671
163.909495 -1780.096723
280.813907 -3127.550335
491.740840 -5448.837784
827.693894 -9447.334480
1438.297440 -16320.212242
2471.364984 -28159.067171
4263.326576 -48537.990417
7332.636279 -83598.274389
12613.783418 -143963.121123
21712.307072 -247861.611642
37382.343734 -426673.158161
64322.907861 -734448.854620
110727.660395 -1264184.126249
190577.214508 -2175964.439943
328018.041137 -3745290.007552
564567.385300 -6446407.157798
971738.548621 -11095495.281364
1672524.712178 -19097435.453877
2878722.315458 -32870218.565417
4954818.864908 -56575656.813221
8528122.030980 -97377039.408558
14678443.390273 -167603603.669792
25264275.347239 -288476247.382357
43484385.832846 -496519984.032844
74844505.755427 -854600973.309448
128820969.461778 -1470923221.688995
221724231.475997 -2531725536.052690
381627604.781856 -4357558586.458780
656850265.803317 -7500148194.454106
1130558359.620003 -12909114526.384773
1945895860.100395 -22218925932.794731
3349239459.650050 -38242798789.668167
5764648164.291660 -65822788289.640366
9922004324.903933 -113292949102.281891
17077567811.822548 -194997699815.839966
29393589523.939293 -335626384775.391357
50591695146.617622 -577673840552.106567
87077477093.207306 -994281383049.217041
149876120874.296600 -1711338473787.149414
257963969074.585205 -2945523693550.886719
444002746741.691711 -5069780152829.388672
764209202634.282837 -8726010540753.968750
1315342550654.571045 -15019045730128.912109
2263942935528.146973 -25850499903644.726562
3896656131677.352051 -44493395737357.609375
6706851471548.097656 -76581198492037.468750
11543706999377.373047 -131810122947081.218750
19868812042804.351562 -226869112176785.500000
34197826747857.421875 -390482862082893.375000
58860658189171.359375 -672091780663483.250000
101309861237834.843750 -1156791771157184.500000
174372633602682.156250 -1991048306670095.250000
300126907470053.375000 -3426955013284894.000000
516572805757943.562500 -5898410713459524.000000
889115427530464.625000 -10152233924805722.000000
1530328802951158.500000 -17473834676989588.000000
2633973241974487.000000 -30075636611634344.000000
4533545357088207.000000 -51765621817758632.000000
7803053264644761.000000 -89098017667317152.000000
13430468971857864.000000 -153353837421155072.000000
23116271373068520.000000 -263949749584840544.000000
39787292857237312.000000 -454305359927622912.000000
68481142454135776.000000 -781941867281925888.000000
117868458370637472.000000 -1345863680555639296.000000
202872980513946752.000000 -2316475332028356096.000000
349181170192220544.000000 -3987073907574730752.000000
601004082987908864.000000 -6862476852081859584.000000
1034436958812232832.000000 -11811566486362320896.000000
1780453497814637312.000000 -20329846769455210496.000000
3064483176935470080.000000 -34991351074959380480.000000
5274530985081762816.000000 -60226457382387433472.000000
9078423834066761728.000000 -103660649200489332736.000000
15625612882748821504.000000 -178418765766709739520.000000
26894511913545719808.000000 -307091034285802651648.000000
46290329633496514560.000000 -528559330255830646784.000000
79674047421493575680.000000 -909746408748893470720.000000
137133476533485600768.000000 -1565838460993431666688.000000
236031568556750405632.000000 -2695091799590750912512.000000
406253110207968378880.000000 -4638741472484358356992.000000
699235236044138741760.000000 -7984114846037467725824.000000
1203510577618495733760.000000 -13742108770846325604352.000000
2071459840373624668160.000000 -23652659951841243561984.000000
3565357837379075833856.000000 -40710514821735055884288.000000
6136627059237415026688.000000 -70070174789017469452288.000000
10562247432602076053504.000000 -120603471031079578632192.000000
18179542238855333675008.000000 -207580433023612326248448.000000
31290287235100819062784.000000 -357283549187122357338112.000000
53856255696169869508608.000000 -614949745794327641063424.000000
92696377499453279436800.000000 -1058439972153463217848320.000000
159547266894980884463616.000000 -1821767034321062779158528.000000
274609764268386793029632.000000 -3135591261341519833989120.000000
472653177325667332653056.000000 -5396920886684873960456192.000000
813521786565863717994496.000000 -9289079037895379546800128.000000
1400218445503666466062336.000000 -15988188669793567539986432.000000
2410029734305058009382912.000000 -27518570559911130254278656.000000
4148097990628347322826752.000000 -47364447674521038778007552.000000
7139628484632186160414720.000000 -81522799253991707201503232.000000
12288594679714833141596160.000000 -140315513523484515062775808.000000
21150898751574927713763328.000000 -241508430960742963158712320.000000
36404530351859167645401088.000000 -415679783086550229083750400.000000
