* DRVARMA input generated by drvarma_gui
* series seasonally adjusted (harmonic), s=12
**********************************************************
** Frequency (1=A, 4=Q, 12=M):
 12
** Series, observations, start (subperiod year):
 3 216 1 2002
** Series names:
 y1 y2 y3
** Box-Cox lambda, regular differences, annual differences:
 0 1 0
** Data:
69.530000 82.500000 81.940000 
69.590000 82.500000 82.040000 
70.165000 82.700000 82.400000 
71.118000 82.600000 82.710000 
71.374000 82.700000 82.810000 
71.377000 82.700000 82.800000 
70.882000 82.800000 82.800000 
71.085000 82.700000 82.990000 
71.351000 82.700000 83.140000 
72.058000 82.600000 83.270000 
72.169000 82.300000 83.270000 
72.409000 83.100000 83.410000 
72.111000 83.100000 83.570000 
72.264000 83.600000 84.150000 
72.765000 83.600000 84.490000 
73.357000 83.400000 84.370000 
73.289000 83.200000 84.270000 
73.338000 83.500000 84.430000 
72.878000 83.600000 84.340000 
73.213000 83.600000 84.540000 
73.431000 83.600000 84.860000 
73.926000 83.600000 85.040000 
74.167000 83.400000 85.140000 
74.294000 84.000000 85.230000 
73.773000 84.000000 85.230000 
73.807000 84.200000 85.590000 
74.322000 84.500000 85.930000 
75.340000 84.800000 86.150000 
75.784000 85.000000 86.470000 
75.904000 85.000000 86.500000 
75.328000 85.100000 86.360000 
75.661000 85.200000 86.550000 
75.796000 85.000000 86.630000 
76.575000 85.100000 86.850000 
76.767000 85.000000 86.900000 
76.692000 85.900000 87.000000 
76.046000 85.300000 86.520000 
76.243000 85.600000 87.050000 
76.846000 86.000000 87.600000 
77.953000 85.800000 87.770000 
78.102000 85.900000 87.830000 
78.284000 86.100000 87.930000 
77.805000 86.400000 87.800000 
78.147000 86.500000 88.140000 
78.627000 86.600000 88.480000 
79.266000 86.700000 88.460000 
79.386000 86.400000 88.280000 
79.557000 87.100000 88.390000 
79.234000 86.800000 88.300000 
79.272000 87.200000 88.640000 
79.833000 87.200000 88.890000 
80.959000 87.500000 89.270000 
81.251000 87.500000 89.650000 
81.374000 87.700000 89.650000 
80.890000 88.000000 89.500000 
81.055000 87.900000 89.800000 
80.922000 87.600000 89.600000 
81.254000 87.600000 89.400000 
81.455000 87.600000 89.500000 
81.678000 88.300000 89.710000 
81.129000 88.300000 89.400000 
81.184000 88.700000 89.570000 
81.800000 88.900000 89.950000 
82.930000 89.300000 90.390000 
83.158000 89.300000 90.610000 
83.311000 89.400000 90.720000 
82.704000 89.800000 90.490000 
82.818000 89.700000 90.860000 
83.090000 89.900000 90.960000 
84.167000 90.100000 91.190000 
84.770000 90.600000 91.690000 
85.125000 91.100000 92.030000 
84.598000 90.800000 91.920000 
84.730000 91.200000 92.120000 
85.482000 91.700000 92.810000 
86.402000 91.500000 93.120000 
86.985000 92.000000 93.620000 
87.486000 92.300000 93.960000 
87.066000 92.800000 93.760000 
86.879000 92.500000 93.730000 
86.861000 92.400000 93.670000 
87.160000 92.200000 93.620000 
86.790000 91.800000 93.180000 
86.345000 92.100000 92.950000 
85.281000 91.700000 92.570000 
85.290000 92.200000 92.920000 
85.430000 92.000000 93.090000 
86.264000 92.100000 93.240000 
86.234000 92.000000 93.380000 
86.614000 92.300000 93.500000 
85.874000 92.300000 93.080000 
86.174000 92.500000 93.560000 
85.971000 92.200000 93.330000 
86.584000 92.300000 93.420000 
87.053000 92.100000 93.550000 
87.031000 92.900000 93.800000 
86.158000 92.300000 93.590000 
86.001000 92.700000 94.110000 
86.639000 93.200000 94.570000 
87.562000 93.200000 94.810000 
87.756000 93.200000 94.920000 
87.913000 93.200000 94.910000 
87.519000 93.300000 94.640000 
87.740000 93.400000 94.860000 
87.801000 93.300000 94.790000 
88.603000 93.400000 94.910000 
89.084000 93.600000 95.020000 
89.631000 94.100000 95.450000 
88.975000 93.900000 95.220000 
89.088000 94.500000 95.670000 
89.754000 95.000000 96.450000 
90.871000 95.100000 96.780000 
90.841000 95.000000 96.830000 
90.713000 95.100000 96.910000 
90.226000 95.300000 96.480000 
90.338000 95.400000 96.980000 
90.559000 95.600000 96.910000 
91.273000 95.600000 97.140000 
91.643000 95.700000 97.410000 
91.762000 96.000000 97.800000 
90.753000 95.800000 97.460000 
90.847000 96.500000 97.860000 
91.458000 97.100000 98.670000 
92.743000 96.900000 98.800000 
92.606000 96.800000 98.750000 
92.433000 96.700000 98.780000 
92.217000 97.100000 98.350000 
92.736000 97.400000 99.000000 
93.649000 97.500000 98.760000 
94.445000 97.500000 98.940000 
94.328000 97.600000 98.790000 
94.394000 97.900000 99.100000 
93.188000 97.400000 98.600000 
93.349000 98.000000 98.880000 
93.678000 98.400000 99.630000 
94.028000 98.000000 99.480000 
94.201000 98.400000 99.540000 
94.340000 98.500000 99.700000 
93.853000 98.900000 99.400000 
94.145000 98.900000 99.860000 
93.969000 98.900000 99.630000 
94.351000 98.700000 99.500000 
94.547000 98.900000 99.460000 
94.632000 99.300000 99.800000 
93.373000 98.800000 99.240000 
93.333000 99.200000 99.790000 
93.541000 99.500000 100.240000 
94.373000 99.400000 100.200000 
94.395000 99.200000 100.220000 
94.421000 99.500000 100.180000 
93.533000 99.700000 99.860000 
93.681000 99.800000 100.300000 
93.824000 99.800000 99.920000 
94.261000 99.500000 99.950000 
94.195000 99.500000 99.780000 
93.646000 99.500000 99.860000 
92.141000 98.500000 98.860000 
92.331000 99.200000 99.520000 
92.920000 99.700000 100.170000 
93.774000 100.200000 100.280000 
94.222000 100.400000 100.520000 
94.474000 100.400000 100.440000 
93.597000 100.600000 100.030000 
93.286000 100.600000 100.350000 
92.999000 100.400000 99.950000 
93.595000 100.400000 100.010000 
93.937000 99.700000 99.820000 
93.663000 99.700000 100.040000 
91.876000 99.000000 99.080000 
91.552000 99.300000 99.330000 
92.139000 100.000000 100.020000 
92.785000 100.100000 100.090000 
93.292000 100.600000 100.500000 
93.723000 100.700000 100.630000 
93.041000 101.100000 100.250000 
93.161000 101.000000 100.580000 
93.165000 101.000000 100.340000 
94.230000 101.200000 100.370000 
94.572000 100.500000 100.350000 
95.132000 101.200000 100.650000 
94.609000 100.600000 100.410000 
94.269000 101.200000 100.530000 
94.249000 101.400000 101.170000 
95.154000 101.800000 101.260000 
95.097000 101.800000 101.310000 
95.138000 102.100000 101.320000 
94.482000 102.500000 100.970000 
94.670000 102.600000 101.490000 
94.835000 102.700000 101.330000 
95.710000 102.500000 101.430000 
96.147000 102.100000 101.530000 
96.190000 102.600000 101.850000 
95.153000 102.000000 101.750000 
95.281000 102.300000 101.720000 
95.393000 102.900000 102.750000 
96.181000 103.100000 102.920000 
97.048000 103.900000 103.360000 
97.302000 104.000000 103.370000 
96.604000 104.400000 103.280000 
96.742000 104.500000 103.780000 
96.978000 104.700000 103.560000 
97.875000 104.900000 103.670000 
97.768000 104.200000 103.450000 
97.329000 104.200000 103.470000 
96.085000 103.400000 103.010000 
96.320000 103.800000 103.060000 
96.669000 104.200000 103.890000 
97.644000 105.200000 104.220000 
97.834000 105.400000 104.330000 
97.719000 105.700000 104.580000 
97.113000 106.200000 104.380000 
97.059000 106.000000 104.860000 
97.059000 106.000000 104.500000 
98.001000 106.100000 104.460000 
98.167000 105.300000 104.520000 
98.096000 105.800000 104.980000 
