* DRVARMA input generated by drvarma_gui
* series seasonally adjusted (harmonic), s=12
**********************************************************
** Frequency (1=A, 4=Q, 12=M):
 12
** Series, observations, start (subperiod year):
 3 216 1 2002
** Series names:
 y1 y2 y3
** Box-Cox lambda, regular differences, annual differences:
 0 1 0
** Data:
70.192892 82.446017 78.174455 
70.340050 82.324435 78.153595 
70.580318 82.224519 78.138290 
70.752865 82.465159 78.050763 
70.913078 82.500244 78.107680 
70.911180 82.518106 78.075708 
71.113894 82.875413 78.004847 
71.279607 82.811608 77.995098 
71.546153 83.170581 78.118682 
71.689811 83.335110 78.114488 
71.728358 83.439639 78.099183 
72.059793 83.469168 78.467211 
72.773892 84.076017 78.974455 
73.014050 84.434435 79.153595 
73.180318 84.314519 78.938290 
72.991865 84.125159 78.750763 
72.828078 83.960244 78.507680 
72.872180 84.148106 78.775708 
73.109894 84.415413 78.704847 
73.407607 84.361608 78.795098 
73.626153 84.890581 78.918682 
73.557811 85.105110 79.014488 
73.726358 85.309639 79.099183 
73.944793 85.289168 79.367211 
74.435892 85.736017 79.874455 
74.557050 85.874435 79.753595 
74.737318 85.754519 79.838290 
74.974865 85.905159 80.050763 
75.323078 86.160244 80.207680 
75.438180 86.218106 80.175708 
75.559894 86.435413 80.104847 
75.855607 86.371608 80.295098 
75.991153 86.660581 80.218682 
76.206811 86.915110 80.414488 
76.326358 87.069639 80.599183 
76.342793 87.059168 81.167211 
76.708892 87.026017 81.074455 
76.993050 87.334435 81.053595 
77.261318 87.424519 81.238290 
77.587865 87.525159 80.950763 
77.641078 87.520244 81.107680 
77.818180 87.648106 81.175708 
78.036894 87.875413 81.404847 
78.341607 87.961608 81.595098 
78.822153 88.510581 81.818682 
78.897811 88.525110 81.914488 
78.945358 88.449639 81.999183 
79.207793 88.449168 82.267211 
79.896892 88.806017 82.474455 
80.022050 88.924435 82.553595 
80.248318 88.714519 82.338290 
80.593865 89.025159 82.650763 
80.790078 89.340244 82.607680 
80.908180 89.368106 82.775708 
81.121894 89.575413 82.904847 
81.249607 89.621608 82.795098 
81.117153 89.630581 82.618682 
80.885811 89.465110 82.814488 
81.014358 89.669639 83.099183 
81.328793 89.769168 83.467211 
81.791892 89.906017 83.974455 
81.934050 89.854435 83.953595 
82.215318 89.774519 83.938290 
82.564865 90.145159 84.350763 
82.697078 90.300244 84.307680 
82.845180 90.438106 84.375708 
82.935894 90.565413 84.604847 
83.012607 90.681608 84.595098 
83.285153 90.990581 84.818682 
83.798811 91.255110 85.114488 
84.329358 91.859639 85.899183 
84.775793 92.089168 86.067211 
85.260892 92.426017 86.274455 
85.480050 92.404435 86.353595 
85.897318 92.634519 86.538290 
86.036865 92.875159 86.350763 
86.524078 93.310244 86.807680 
87.020180 93.678106 87.075708 
87.297894 93.835413 87.404847 
87.073607 93.551608 87.195098 
87.056153 93.700581 87.318682 
86.791811 93.685110 87.214488 
86.349358 93.349639 87.099183 
85.995793 93.009168 86.967211 
85.943892 93.076017 87.074455 
86.040050 93.204435 87.253595 
85.845318 92.914519 86.938290 
85.898865 92.995159 86.950763 
85.773078 93.070244 86.907680 
86.148180 93.218106 87.175708 
86.105894 93.155413 87.004847 
86.368607 93.381608 87.295098 
86.166153 93.360581 87.018682 
86.215811 93.485110 87.214488 
86.612358 93.719639 87.399183 
86.681793 93.859168 87.767211 
86.820892 94.096017 87.774455 
86.751050 94.394435 87.753595 
87.054318 94.394519 88.038290 
87.196865 94.565159 88.050763 
87.295078 94.610244 88.007680 
87.447180 94.628106 87.975708 
87.750894 94.715413 87.904847 
87.934607 94.681608 88.095098 
87.996153 94.820581 88.118682 
88.234811 94.975110 88.314488 
88.643358 95.189639 88.699183 
89.281793 95.509168 88.967211 
89.637892 95.726017 89.174455 
89.838050 95.954435 89.453595 
90.169318 96.274519 89.738290 
90.505865 96.535159 89.750763 
90.380078 96.520244 89.707680 
90.247180 96.628106 89.775708 
90.457894 96.555413 89.804847 
90.532607 96.801608 89.995098 
90.754153 96.940581 90.218682 
90.904811 97.205110 90.414488 
91.202358 97.579639 90.799183 
91.412793 97.859168 90.667211 
91.415892 97.966017 91.074455 
91.597050 98.144435 91.353595 
91.873318 98.494519 91.638290 
92.377865 98.555159 91.550763 
92.145078 98.440244 91.407680 
91.967180 98.498106 91.275708 
92.448894 98.425413 91.404847 
92.930607 98.821608 91.895098 
93.844153 98.790581 92.118682 
94.076811 99.005110 92.214488 
93.887358 98.959639 92.499183 
94.044793 99.159168 92.467211 
93.850892 99.106017 92.574455 
94.099050 99.164435 92.753595 
94.093318 99.454519 92.938290 
93.662865 99.235159 92.550763 
93.740078 99.230244 92.907680 
93.874180 99.418106 92.975708 
94.084894 99.475413 93.204847 
94.339607 99.681608 93.295098 
94.164153 99.660581 93.418682 
93.982811 99.565110 93.314488 
94.106358 99.629639 93.799183 
94.282793 99.859168 93.867211 
94.035892 99.746017 93.774455 
94.083050 100.074435 93.953595 
93.956318 100.064519 93.938290 
94.007865 99.955159 93.850763 
93.934078 99.910244 93.707680 
93.955180 99.898106 93.875708 
93.764894 99.935413 94.004847 
93.875607 100.121608 94.095098 
94.019153 99.950581 94.218682 
93.892811 100.015110 94.114488 
93.754358 99.949639 94.399183 
93.296793 99.919168 93.967211 
92.803892 99.366017 93.574455 
93.081050 99.804435 93.953595 
93.335318 99.994519 94.238290 
93.408865 100.035159 94.650763 
93.761078 100.210244 94.807680 
94.008180 100.158106 94.775708 
93.828894 100.105413 94.804847 
93.480607 100.171608 94.795098 
93.194153 99.980581 94.818682 
93.226811 100.075110 94.914488 
93.496358 99.989639 94.599183 
93.313793 100.099168 94.267211 
92.538892 99.586017 94.074455 
92.302050 99.614435 94.053595 
92.554318 99.844519 94.438290 
92.419865 99.845159 94.550763 
92.831078 100.190244 95.007680 
93.257180 100.348106 95.075708 
93.272894 100.325413 95.204847 
93.355607 100.401608 95.195098 
93.360153 100.370581 95.418682 
93.861811 100.435110 95.614488 
94.131358 100.519639 95.299183 
94.782793 100.709168 95.567211 
95.271892 100.916017 95.574455 
95.019050 100.814435 95.753595 
94.664318 100.994519 95.738290 
94.788865 101.015159 96.150763 
94.636078 101.000244 96.107680 
94.672180 101.038106 96.375708 
94.713894 101.045413 96.604847 
94.864607 101.311608 96.795098 
95.030153 101.360581 96.918682 
95.341811 101.495110 96.914488 
95.706358 101.699639 96.799183 
95.840793 101.909168 96.867211 
95.815892 102.256017 96.874455 
96.031050 102.004435 96.853595 
95.808318 102.574519 97.138290 
95.815865 102.675159 97.450763 
96.587078 103.050244 98.107680 
96.836180 103.088106 98.175708 
96.835894 103.355413 98.404847 
96.936607 103.601608 98.595098 
97.173153 103.590581 98.918682 
97.506811 103.735110 99.114488 
97.327358 103.619639 98.799183 
96.979793 103.529168 98.467211 
96.747892 103.516017 98.174455 
97.070050 103.344435 98.253595 
97.084318 103.714519 98.438290 
97.278865 103.975159 99.350763 
97.373078 104.020244 99.507680 
97.253180 104.298106 99.775708 
97.344894 104.455413 100.004847 
97.253607 104.681608 99.995098 
97.254153 104.530581 100.118682 
97.632811 104.525110 100.214488 
97.726358 104.689639 99.799183 
97.746793 105.039168 99.967211 
