* Synthetic cointegrated data (M=2, r=1)
1
2 99 1 2000
Y1 Y2
1.0 0 0
-0.069132 0.017186
0.323844 0.223925
0.761515 0.663866
-0.117077 0.660939
-0.117068 0.791326
0.789606 2.002077
0.383717 2.143008
-0.234737 1.880484
0.271280 1.953069
-0.231709 1.127741
-0.232865 1.125149
0.120981 1.358178
-0.956640 1.395515
-0.862459 0.390457
-0.281144 0.124660
-0.506416 -0.405880
0.157124 -0.695615
-0.454012 -0.614635
-0.706152 -1.030309
0.732824 -0.342772
-0.112888 -0.882441
0.033764 -0.431391
-0.712374 -1.588261
-0.272191 -1.561583
0.055461 -0.889476
-0.575497 -1.927529
0.187849 -1.996571
-0.300319 -2.168635
-0.145847 -2.425335
-0.300853 -3.064188
0.926139 -2.076411
-0.006749 -2.272950
-0.528855 -2.349950
0.411272 -2.231186
-0.610422 -2.104869
0.104432 -2.352486
-0.979835 -3.196695
-0.664093 -3.423500
0.098431 -3.775388
0.369233 -3.300884
0.085684 -2.800961
-0.057824 -3.462783
-0.150552 -3.414927
-0.739261 -3.882783
-0.359922 -3.940007
-0.230319 -4.591466
0.528561 -4.473991
0.171809 -3.967048
-0.881520 -4.518055
0.162042 -4.309843
-0.192541 -4.387942
-0.338461 -4.921092
0.305838 -4.560167
0.515500 -4.059769
0.465640 -3.936685
-0.419609 -3.647991
-0.154606 -3.814630
0.165632 -4.207438
0.487773 -3.578051
-0.239587 -4.115590
-0.092829 -3.868845
-0.553167 -4.007321
-0.598103 -4.897152
0.406263 -4.283733
0.678120 -3.733370
-0.036005 -3.634670
0.501766 -2.834335
0.180818 -3.092982
-0.322560 -3.745515
0.180698 -3.878381
0.769018 -3.407510
-0.017913 -3.286834
0.782322 -2.454496
-1.309873 -3.397845
0.410951 -2.841206
0.043524 -2.913915
-0.149504 -2.665875
0.045880 -2.924043
-0.993784 -3.000545
-0.109836 -3.285650
0.178556 -3.705993
0.738947 -3.516870
-0.259135 -3.499389
-0.404247 -3.899693
-0.250879 -3.865301
0.457701 -3.430312
0.164376 -3.421335
-0.264880 -3.938942
0.256634 -4.117473
0.048539 -3.988446
0.484322 -3.155995
-0.351027 -3.362513
-0.163831 -3.886945
-0.196054 -3.854133
-0.731757 -4.262105
0.148060 -4.417949
0.130528 -4.166827
0.002557 -4.105417
-0.117294 -4.523986
