* Vienna-London wheat prices (1700-1812)
* log-levels, no differencing
1
2 112 1 1701
Vienna London
1.0 0 0
-0.09875531 0.11138528
0.03044955 -0.41329918
0.20471975 -0.40183840
-0.23642021 -0.13402549
-0.08354699 -0.23321091
0.01461579 -0.12555449
0.07663412 -0.07276850
0.42366027 -0.40544380
0.41793246 0.04988530
-0.48469105 -0.39279801
-0.08236193 -0.43780147
-0.10961839 -0.00365084
0.26920697 -0.07419665
-0.35117387 0.07551088
0.24590071 -0.27129066
-0.10843333 -0.14100634
-0.06142580 -0.10069902
-0.19593053 0.28525609
0.12857941 0.21706382
0.00000000 0.04212237
-0.11337109 -0.30879012
0.05846314 -0.60393618
-0.01540583 -0.57453135
0.16116866 -0.54548962
0.03792204 -0.45530667
-0.16827904 0.14634121
0.29271073 -0.20472369
-0.00296266 -0.32900344
-0.27651486 -0.31327793
-0.06438846 -0.22719987
-0.08334948 -0.02635519
0.00395021 -0.12745146
0.03436685 -0.26231483
0.12680181 -0.51005677
0.04127972 -0.43446852
-0.12403667 -0.04492447
-0.01915853 -0.16319356
0.01106059 -0.09052939
0.19533800 -0.03687812
0.27276216 0.07465560
-0.46533501 0.12696896
-0.11297607 0.22423341
-0.05490795 0.29681322
0.00809794 0.23584760
0.15149064 0.29023563
0.03574942 0.15910510
-0.02073861 0.01165408
0.03160170 0.18915816
-0.03555191 -0.17451190
0.01639338 -0.40417643
0.14457777 -0.53778408
-0.00671536 -0.19802152
-0.02765149 0.01794301
-0.14319520 0.19276395
0.08808973 0.20949277
0.38554072 0.03618113
-0.15405828 0.43618574
-0.21489155 0.58695513
-0.04424238 0.14679460
-0.00809794 0.13323464
0.00000000 0.11490152
0.03851457 0.04422476
0.14596034 -0.09210165
0.02350376 -0.18346910
-0.01520832 0.08208579
0.26170156 0.31033368
-0.00276515 0.26234876
-0.21212640 0.10093961
-0.11297607 0.03891610
0.16531638 0.39879263
0.12680181 0.58774036
0.10171797 0.69245828
-0.11001341 0.18770288
0.13766490 0.28536411
-0.37467764 0.02634900
0.06754863 -0.08331058
0.11356860 -0.06589910
-0.23543265 0.14592561
-0.00553030 0.13573628
0.30495639 0.33101219
-0.03377432 0.16266049
0.07228888 0.04259468
-0.06201833 -0.13731004
-0.08176939 0.08537185
-0.09658269 0.10294041
-0.00276515 0.19968445
0.14497279 0.59163760
0.02705895 0.75477400
0.16492136 0.80335486
-0.08196691 0.69518696
-0.19968323 0.34888561
0.19020272 0.13110318
-0.01343072 -0.03391512
0.23523514 0.42911638
0.72585151 0.80951940
-0.84100020 0.22906441
0.14813296 0.38244916
-0.15642841 0.20774652
1.08966606 0.72375581
0.72091374 1.53058051
-1.27888123 0.89048599
-0.43452335 0.96290924
-0.09302750 0.93566190
0.85838113 1.32819614
-0.35551911 1.30992331
0.07327644 0.83448597
-0.19178281 0.56783802
0.38514570 1.30934015
0.45427441 1.45840848
-0.28639039 0.95775457
0.59253184 1.44903570
-0.12344413 0.90064044
