* Wheat Arnhem-London (pre-1810, no convergence)
1
2 33 1 1721
Arnhem London
1.0 0 0
12.089714 -71.693561
7.763802 -71.924929
-5.950868 -71.187187
-7.115183 -70.903959
10.164394 -71.404112
-7.162722 -72.644642
4.116564 -72.541448
-0.270319 -72.558855
-6.830066 -72.647267
14.405214 -73.766019
-2.585499 -73.285145
-7.570981 -72.403255
0.086611 -73.515129
-2.671950 -73.909779
15.308210 -72.154514
-14.311483 -72.761219
7.415508 -74.434340
17.860048 -73.739908
3.809865 -73.296753
-4.230307 -71.626393
19.717309 -70.054175
14.133382 -69.418823
17.999456 -66.020279
-34.867058 -64.001376
3.162291 -63.557850
-3.859463 -64.352064
26.029364 -63.584894
-26.178067 -62.383395
15.616240 -62.111536
-5.551641 -62.029095
10.673968 -61.511343
-5.027675 -61.178009
6.575732 -61.438013
