* Univariate IPC_ES (log first differences)
** Frequency (1=A, 4=Q, 12=M):
 12
** Series, observations, start (subperiod year):
 1 216 1 2002
** Series names:
 IPC_ES
** Box-Cox lambda, regular differences, annual differences:
 0.0 1 0
** Data:
69.5300
69.5900
70.1650
71.1180
71.3740
71.3770
70.8820
71.0850
71.3510
72.0580
72.1690
72.4090
72.1110
72.2640
72.7650
73.3570
73.2890
73.3380
72.8780
73.2130
73.4310
73.9260
74.1670
74.2940
73.7730
73.8070
74.3220
75.3400
75.7840
75.9040
75.3280
75.6610
75.7960
76.5750
76.7670
76.6920
76.0460
76.2430
76.8460
77.9530
78.1020
78.2840
77.8050
78.1470
78.6270
79.2660
79.3860
79.5570
79.2340
79.2720
79.8330
80.9590
81.2510
81.3740
80.8900
81.0550
80.9220
81.2540
81.4550
81.6780
81.1290
81.1840
81.8000
82.9300
83.1580
83.3110
82.7040
82.8180
83.0900
84.1670
84.7700
85.1250
84.5980
84.7300
85.4820
86.4020
86.9850
87.4860
87.0660
86.8790
86.8610
87.1600
86.7900
86.3450
85.2810
85.2900
85.4300
86.2640
86.2340
86.6140
85.8740
86.1740
85.9710
86.5840
87.0530
87.0310
86.1580
86.0010
86.6390
87.5620
87.7560
87.9130
87.5190
87.7400
87.8010
88.6030
89.0840
89.6310
88.9750
89.0880
89.7540
90.8710
90.8410
90.7130
90.2260
90.3380
90.5590
91.2730
91.6430
91.7620
90.7530
90.8470
91.4580
92.7430
92.6060
92.4330
92.2170
92.7360
93.6490
94.4450
94.3280
94.3940
93.1880
93.3490
93.6780
94.0280
94.2010
94.3400
93.8530
94.1450
93.9690
94.3510
94.5470
94.6320
93.3730
93.3330
93.5410
94.3730
94.3950
94.4210
93.5330
93.6810
93.8240
94.2610
94.1950
93.6460
92.1410
92.3310
92.9200
93.7740
94.2220
94.4740
93.5970
93.2860
92.9990
93.5950
93.9370
93.6630
91.8760
91.5520
92.1390
92.7850
93.2920
93.7230
93.0410
93.1610
93.1650
94.2300
94.5720
95.1320
94.6090
94.2690
94.2490
95.1540
95.0970
95.1380
94.4820
94.6700
94.8350
95.7100
96.1470
96.1900
95.1530
95.2810
95.3930
96.1810
97.0480
97.3020
96.6040
96.7420
96.9780
97.8750
97.7680
97.3290
96.0850
96.3200
96.6690
97.6440
97.8340
97.7190
97.1130
97.0590
97.0590
98.0010
98.1670
98.0960
